&CONTROL
  calculation = 'scf'
  etot_conv_thr =   1.5000000000d-03
  forc_conv_thr =   1.0000000000d-04
  outdir = './out/'
  prefix = 'aiida'
  pseudo_dir = './pseudo/'
  tprnfor = .true.
  tstress = .true.
/
&SYSTEM
  degauss =   2.0000000000d-02
  ecutrho =   3.2000000000d+02
  ecutwfc =   4.0000000000d+01
  ibrav = 0
  nat = 258
  nosym = .false.
  ntyp = 6
  nbnd = 2500
  occupations = 'smearing'
  lda_plus_U = .true.
  Hubbard_U(2) = 5.0
  Hubbard_U(6) = 6.0
  smearing = 'mp'
  nspin = 2
  starting_magnetization(1) =   1.0000000000d-01
  starting_magnetization(2) =   4.1666666667d-01
  starting_magnetization(6) =   4.1666666667d-01
/
&ELECTRONS
  conv_thr =   4.2200000000d-08
  electron_maxstep = 300
  mixing_beta =   1.0000000000d-01
/
&IONS
/
ATOMIC_SPECIES
O      15.9994 O.pbe-n-kjpaw_psl.0.1.UPF
Ce     140.116 Ce.paw.z_12.atompaw.wentzcovitch.v1.2.upf
H      1.00794 H.pbe-rrkjus_psl.1.0.0.UPF
N      14.0067 N.pbe-n-radius_5.UPF
C      12.0107 C.pbe-n-kjpaw_psl.1.0.0.UPF
Fe     55.845 Fe.pbe-spn-kjpaw_psl.0.2.1.UPF
ATOMIC_POSITIONS (angstrom)
O             1.9330270702        5.5801969547        6.3132601995    0   0   0
O             1.9330311637       18.9726563517        6.3132601995    0   0   0
O             1.9330382755       12.2764209651        6.3132601995    0   0   0
O             3.8660652996       15.6245440452        6.3132601995    0   0   0
O             3.8660669066        2.2320747706        6.3132601995    0   0   0
O             3.8660720657        8.9283092572        6.3132601995    0   0   0
O             5.7990971567       18.9726563517        6.3132601995    0   0   0
O             5.7991056556       12.2764209651        6.3132601995    0   0   0
O             5.7991062016        5.5801969547        6.3132601995    0   0   0
O             7.7321312926       15.6245440452        6.3132601995    0   0   0
O             7.7321394435        8.9283092572        6.3132601995    0   0   0
O             7.7321460381        2.2320747706        6.3132601995    0   0   0
O             9.6651716509       12.2764209651        6.3132601995    0   0   0
O             9.6651735794        5.5801969547        6.3132601995    0   0   0
O             9.6651769793       18.9726563517        6.3132601995    0   0   0
O            -0.0000002972        2.2320747706        6.3132601995    0   0   0
O            -0.0000020806       15.6245440452        6.3132601995    0   0   0
O            -0.0000070657        8.9283092572        6.3132601995    0   0   0
O            -1.9330362165       18.9726563517        6.3132601995    0   0   0
O            -1.9330401360        5.5801969547        6.3132601995    0   0   0
O            -1.9330408537       12.2764209651        6.3132601995    0   0   0
O            -3.8660742695        8.9283092572        6.3132601995    0   0   0
O            -3.8660812097       15.6245440452        6.3132601995    0   0   0
O            -5.7991080598       12.2764209651        6.3132601995    0   0   0
O            -5.7991153456       18.9726563517        6.3132601995    0   0   0
O            -7.7321484158       15.6245440452        6.3132601995    0   0   0
O            -9.6651825517       18.9726563517        6.3132601995    0   0   0
O            11.5982054412        8.9283092572        6.3132601995    0   0   0
O            11.5982111152       15.6245440452        6.3132601995    0   0   0
O            11.5982134159        2.2320747706        6.3132601995    0   0   0
O            13.5312395747        5.5801969547        6.3132601995    0   0   0
O            13.5312514713       12.2764209651        6.3132601995    0   0   0
O            15.4642794135        2.2320747706        6.3132601995    0   0   0
O            15.4642852615        8.9283092572        6.3132601995    0   0   0
O            17.3973193951        5.5801969547        6.3132601995    0   0   0
O            19.3303592339        2.2320747706        6.3132601995    0   0   0
Ce            0.0000000000        0.0000000000        7.1024297940    0   0   0
Ce            0.0000037479       13.3924587984        7.1024297940    0   0   0
Ce            1.9330314597       16.7405806832        7.1024297940    0   0   0
Ce            1.9330330703        3.3481120052        7.1024297940    0   0   0
Ce            1.9330378826       10.0443464939        7.1024297940    0   0   0
Ce            3.8660670322        0.0000000000        7.1024297940    0   0   0
Ce            3.8660711257       13.3924587984        7.1024297940    0   0   0
Ce            3.8660720173        6.6962341893        7.1024297940    0   0   0
Ce            5.7990988375       16.7405806832        7.1024297940    0   0   0
Ce            5.7991052604       10.0443464939        7.1024297940    0   0   0
Ce            5.7991118561        3.3481120052        7.1024297940    0   0   0
Ce            7.7321385035       13.3924587984        7.1024297940    0   0   0
Ce            7.7321393951        6.6962341893        7.1024297940    0   0   0
Ce            7.7321458180        0.0000000000        7.1024297940    0   0   0
Ce            9.6651726382       10.0443464939        7.1024297940    0   0   0
Ce            9.6651772777       16.7405806832        7.1024297940    0   0   0
Ce            9.6651792339        3.3481120052        7.1024297940    0   0   0
Ce           -0.0000067685        6.6962341893        7.1024297940    0   0   0
Ce           -1.9330339619        3.3481120052        7.1024297940    0   0   0
Ce           -1.9330359181       16.7405806832        7.1024297940    0   0   0
Ce           -1.9330409032       10.0443464939        7.1024297940    0   0   0
Ce           -3.8660738007        6.6962341893        7.1024297940    0   0   0
Ce           -3.8660750380       13.3924587984        7.1024297940    0   0   0
Ce           -5.7991079354       10.0443464939        7.1024297940    0   0   0
Ce           -5.7991147039       16.7405806832        7.1024297940    0   0   0
Ce           -7.7321420701       13.3924587984        7.1024297940    0   0   0
Ce           11.5982067729        6.6962341893        7.1024297940    0   0   0
Ce           11.5982131958        0.0000000000        7.1024297940    0   0   0
Ce           11.5982169437       13.3924587984        7.1024297940    0   0   0
Ce           13.5312446555       16.7405806832        7.1024297940    0   0   0
Ce           13.5312466117        3.3481120052        7.1024297940    0   0   0
Ce           13.5312510784       10.0443464939        7.1024297940    0   0   0
Ce           15.4642805736        0.0000000000        7.1024297940    0   0   0
Ce           15.4642852131        6.6962341893        7.1024297940    0   0   0
Ce           17.3973250519        3.3481120052        7.1024297940    0   0   0
Ce           19.3303590138        0.0000000000        7.1024297940    0   0   0
O             0.0000040439       11.1603843271        7.8916000590    0   0   0
O             1.9330334545        1.1160373853        7.8916000590    0   0   0
O             1.9330379794       14.5084954364        7.8916000590    0   0   0
O             1.9330381787        7.8122720226        7.8916000590    0   0   0
O             3.8660643099       17.8566185164        7.8916000590    0   0   0
O             3.8660714240       11.1603843271        7.8916000590    0   0   0
O             3.8660781902        4.4641495391        7.8916000590    0   0   0
O             5.7991046660       14.5084954364        7.8916000590    0   0   0
O             5.7991055588        7.8122720226        7.8916000590    0   0   0
O             5.7991122380        1.1160373853        7.8916000590    0   0   0
O             7.7321381106       11.1603843271        7.8916000590    0   0   0
O             7.7321441303       17.8566185164        7.8916000590    0   0   0
O             7.7321455703        4.4641495391        7.8916000590    0   0   0
O             9.6651722453        7.8122720226        7.8916000590    0   0   0
O             9.6651796158        1.1160373853        7.8916000590    0   0   0
O             9.6651844886       14.5084954364        7.8916000590    0   0   0
O            -0.0000005933        4.4641495391        7.8916000590    0   0   0
O            -0.0000023766       17.8566185164        7.8916000590    0   0   0
O            -1.9330293984       14.5084954364        7.8916000590    0   0   0
O            -1.9330406048        7.8122720226        7.8916000590    0   0   0
O            -3.8660697567       17.8566185164        7.8916000590    0   0   0
O            -3.8660747396       11.1603843271        7.8916000590    0   0   0
O            -5.7991081842       14.5084954364        7.8916000590    0   0   0
O            -7.7321485402       17.8566185164        7.8916000590    0   0   0
O            11.5982115104       17.8566185164        7.8916000590    0   0   0
O            11.5982122569        4.4641495391        7.8916000590    0   0   0
O            11.5982179310       11.1603843271        7.8916000590    0   0   0
O            13.5312463046        1.1160373853        7.8916000590    0   0   0
O            13.5312518665       14.5084954364        7.8916000590    0   0   0
O            13.5312520657        7.8122720226        7.8916000590    0   0   0
O            15.4642853111       11.1603843271        7.8916000590    0   0   0
O            15.4642920796        4.4641495391        7.8916000590    0   0   0
O            17.3973194458        7.8122720226        7.8916000590    0   0   0
O            17.3973261250        1.1160373853        7.8916000590    0   0   0
O            19.3303594574        4.4641495391        7.8916000590    0   0   0
O            21.2633935028        1.1160373853        7.8916000590    0   0   0
O             1.9100709017       16.7528871990        9.4156103242
O             7.7441104244        6.7152023410        9.4352183057
O            -3.8657703390        6.6963789404        9.4276164838
O            -9.6645106529       16.7397436948        9.4285649104
O             3.8631886805       13.3943062838        9.4234615136
O             9.6651861271        3.3611355637        9.4270256770
O            -1.9328854262        3.3500997336        9.4278873711
O            -7.7268900827       13.3941142746        9.4267564759
O            -0.0031505680        6.6943616104        9.4255067887
O             5.8140236388       16.7471350220        9.4255135920
O            -5.7984471510       16.7395440491        9.4290445852
O            11.5884755991        6.6920559010        9.4283461623
O             1.9361720083       10.0376956072        9.4230005250
O             7.7323179209        0.0023085975        9.4280721733
O            13.5513714922       10.0530934034        9.4174406487
O            19.3316937778        0.0054866863        9.4256391480
O             0.0017589844        0.0033078133        9.4250832545
O             5.8321200775        9.9947183343        9.4395750811
O            -5.7932686296       10.0436174635        9.4269623067
O            11.5962278674        0.0049919420        9.4280178077
O             3.8665909298       -0.0022854755        9.4267368274
O             9.6625195282       10.0485833956        9.4413503904
O            -1.9321011591       10.0458307827        9.4277841979
O            15.4606562652        0.0058607452        9.4247117777
O             3.8662988689        6.6906950114        9.4279243172
O             9.6746030662       16.7444299565        9.4268002185
O            -1.9286061113       16.7380993780        9.4311445070
O            15.4680574919        6.6938462055        9.4262117985
O             5.7997349647        3.3372150500        9.4198754307
O            -0.0058685184       13.3955978899        9.4207608111
O            11.5944959669       13.3898938759        9.4277893327
O            17.3981869852        3.3496096192        9.4268352474
O             1.9296260123        3.3458703538        9.4242671174
O             7.7766773208       13.3905426569        9.4520107889
O            -3.8618742754       13.3904185422        9.4283615116
O            13.5307679701        3.3514725127        9.4270264149
Ce            1.9302264249       14.5134436192       10.2144479883
Ce            7.7269485051        4.4458556971       10.2238036236
Ce           13.5405615566       14.5162343420       10.2408860619
Ce           19.3323939898        4.4628922174       10.2410742366
Ce           -0.0006686818       17.8595514650       10.2400467970
Ce            5.7781324191        7.7813357509       10.2431883929
Ce           11.5997821546       17.8664023871       10.2411606178
Ce           17.4065046798        7.8111522641       10.2432106421
Ce            3.8656068751       17.8667701948       10.2282531021
Ce            9.6874026603        7.8045675148       10.2181848392
Ce           -1.9330208159        7.8087849656       10.2417180400
Ce           -7.7315488898       17.8587664678       10.2402860648
Ce            3.8573080605       11.1559136485       10.2172679357
Ce            9.6651675122        1.1133614028       10.2393378131
Ce           15.4822654728       11.1624961036       10.2392189170
Ce           21.2635671315        1.1189852574       10.2403333365
Ce            1.9249396176        7.8042910500       10.2350848955
Ce            7.7338235224       17.8669507496       10.2391028973
Ce           -3.8654024965       17.8554345113       10.2414367408
Ce           13.5560631765        7.8101883381       10.2305049451
Ce            5.7955643981        1.1101025244       10.2400937229
Ce            0.0009523683       11.1575293573       10.2345982137
Ce           11.6504015588       11.1726175282       10.2123392252
Ce           17.4008545412        1.1190644176       10.2414645487
Ce           -0.0041587471        4.4609734329       10.2406090208
Ce            5.7967437018       14.5255396143       10.2543049407
Ce           -5.7924361893       14.5113058241       10.2395206321
Ce           11.6079489727        4.4572040328       10.2393589352
Ce            1.9301478661        1.1149119235       10.2403864356
Ce            7.7268820793       11.1686275324       10.2288912872
Ce           -3.8591172464       11.1608211608       10.2414727227
Ce           13.5310679214        1.1151684988       10.2419347204
Ce            3.8567626895        4.4495968981       10.2369020310
Ce            9.6827336384       14.5388435931       10.2488710574
Ce           -1.9316949406       14.5099613597       10.2402888669
Ce           15.4702230274        4.4593444337       10.2437129925
O             3.8802088080        8.9167560324       11.0218845557
O             9.6673620559       18.9770594300       11.0284049990
O            -1.9347816048       18.9737786005       11.0315661171
O            15.4732138628        8.9236253898       11.0350569460
O             1.9273940968       12.2731742820       11.0128385550
O             7.7383671149        2.2404475545       11.0270607764
O            13.5382481528       12.2755012194       11.0349495801
O            19.3293507177        2.2374858401       11.0320753787
O             5.7989946297       18.9838665153       11.0235820898
O             0.0010650107        8.9225636349       11.0281453720
O            -5.7984134530       18.9723280822       11.0307778689
O            11.6560148283        8.9408159314       11.0178410884
O             3.8577707433       15.6612023226       10.9520277110
O             9.6682459522        5.5876511033       11.0853629427
O            -1.9346919671        5.5825639609       11.0313621971
O            -7.7341353763       15.6220875462       11.0318210499
O             1.9296433996       18.9790389836       11.0339020338
O             7.7971178097        8.8773551201       11.1876527069
O            -3.8627231009        8.9265595429       11.0302762714
O            -9.6665925133       18.9731943484       11.0297605141
O             5.8062962372        5.5607501619       10.9968503455
O             0.0040389104       15.6180906247       11.0576436723
O            11.5958025056       15.6236947441       11.0376931087
O            17.3987975588        5.5815001797       11.0309437092
O             5.7805135066       12.2578157805       10.9499451479
O            -0.0011271607        2.2333596188       11.0309339288
O            -5.7933732748       12.2743318422       11.0333881832
O            11.5959800059        2.2420957950       11.0311031782
O             1.9299042973        5.5787120639       11.0284166936
O             7.7483018589       15.6325740615       11.0240868985
O            -3.8654464653       15.6231518943       11.0344199862
O            13.5285893364        5.5863056374       11.0444333353
O             3.8631008291        2.2299997814       11.0232056504
O             9.7769642649       12.2749318195       11.1723982316
O            -1.9249479124       12.2765211532       11.0449900937
O            15.4626725953        2.2397520951       11.0299693354
H             1.1494223690       13.0977887982       13.9883454128
N             2.1585556425       13.2375435791       13.9380399342
C             2.8290204006       14.4168989293       13.6803905090
N             4.1371746283       14.2542724708       13.5823170874
C             4.3272657279       12.9092224922       13.7681341035
C             5.5152460214       12.1231043264       13.7316568279
O             6.7011956130       12.5119605597       13.6032007837
N             5.2200987535       10.7553191832       13.8102103508
C             3.9826983357       10.1998557937       14.0697730868
N             3.9298452409        8.8719510036       14.2410130001
N             2.8674770974       10.9311775178       14.1375330952
C             3.0971754106       12.2415784329       13.9737410698
H             2.3030617128       15.3658723022       13.5681473489
H             6.0352457209       10.1327932434       13.7142523157
H             3.0412429867        8.4553064087       14.5044359484
H             4.7490120157        8.2674244318       14.1397081149
H             8.6275903071        6.0037576089       13.5785651472
N             8.7054033756        7.0257679566       13.5936486240
C             7.5548396525        7.7560349642       13.5033418207
O             6.4265838260        7.3090490921       13.4162910949
N             7.7497900978        9.1877692725       13.8719543945
C             8.9958320964        9.8122847823       13.4485442367
N             8.9446237860       11.1050107789       13.3371888786
C            10.1187334438        8.9565413485       13.3902764109
C             9.9467342986        7.6090789706       13.5525626955
H            10.7874346539        6.9163548196       13.6099181051
H            11.1240221533        9.3553963391       13.2415704034
H             8.0092320714       11.6262743097       13.5047236405
H             9.6421574533       11.6504008132       12.7419029471
N             7.7314536041        9.1824368620       15.2333546321
C             7.6131217830        8.6692905281       16.2936155394
N             5.8588225379        5.5283817257       16.3111160373
C             6.4251862514        6.2887208961       17.0073430388
N            10.0469239175        6.1150709826       17.0646874956
C             9.1154013194        6.6713976773       17.5176247030
Fe            7.4316096252        7.7477180127       18.0716852066
C             5.6935351193        8.8337430518       18.0933223842
N             4.8069650298        9.5599425608       17.8402157028
C             8.6563284911        9.2875377078       18.6241750712
N             9.2907586164       10.2715215667       18.7475883102
C             7.2694671613        7.0443923836       19.9077938610
N             7.1668959703        6.6350267363       21.0020433826
K_POINTS gamma
CELL_PARAMETERS angstrom
     23.1964263916       0.0000000000       0.0000000000
    -11.5982158708      20.0886929877       0.0000000000
      0.0000000000       0.0000000000      30.0000000000
