&CONTROL
  calculation = 'relax'
  etot_conv_thr =   1.5000000000d-03
  forc_conv_thr =   1.0000000000d-04
  outdir = './out/'
  prefix = 'aiida'
  pseudo_dir = './pseudo/'
  tprnfor = .true.
  tstress = .true.
/
&SYSTEM
  degauss =   2.0000000000d-02
  ecutrho =   2.4000000000d+02
  ecutwfc =   3.0000000000d+01
  ibrav = 0
  nat = 242
  nosym = .false.
  ntyp = 6
  occupations = 'smearing'
  lda_plus_U = .true.
  Hubbard_U(2) = 5.0
  Hubbard_U(6) = 5.0
  smearing = 'mp'
  nspin = 2
  starting_magnetization(1) =   1.0000000000d-01
  starting_magnetization(2) =   4.1666666667d-01
  starting_magnetization(6) =   4.1666666667d-01
/
&ELECTRONS
  scf_must_converge = .false.
  conv_thr =   4.2200000000d-06
  electron_maxstep = 80
  mixing_beta =   1.0000000000d-01
/
&IONS
/
ATOMIC_SPECIES
O      15.9994 O.pbe-n-kjpaw_psl.0.1.UPF
Ce     140.116 Ce.paw.z_12.atompaw.wentzcovitch.v1.2.upf
H      1.00794 H.pbe-rrkjus_psl.1.0.0.UPF
N      14.0067 N.pbe-n-radius_5.UPF
C      12.0107 C.pbe-n-kjpaw_psl.1.0.0.UPF
Fe     55.845 Fe.pbe-spn-kjpaw_psl.0.2.1.UPF
ATOMIC_POSITIONS (angstrom)
O             1.9330270702        5.5801969547        6.3132601995    0   0   0
O             1.9330311637       18.9726563517        6.3132601995    0   0   0
O             1.9330382755       12.2764209651        6.3132601995    0   0   0
O             3.8660652996       15.6245440452        6.3132601995    0   0   0
O             3.8660669066        2.2320747706        6.3132601995    0   0   0
O             3.8660720657        8.9283092572        6.3132601995    0   0   0
O             5.7990971567       18.9726563517        6.3132601995    0   0   0
O             5.7991056556       12.2764209651        6.3132601995    0   0   0
O             5.7991062016        5.5801969547        6.3132601995    0   0   0
O             7.7321312926       15.6245440452        6.3132601995    0   0   0
O             7.7321394435        8.9283092572        6.3132601995    0   0   0
O             7.7321460381        2.2320747706        6.3132601995    0   0   0
O             9.6651716509       12.2764209651        6.3132601995    0   0   0
O             9.6651735794        5.5801969547        6.3132601995    0   0   0
O             9.6651769793       18.9726563517        6.3132601995    0   0   0
O            -0.0000002972        2.2320747706        6.3132601995    0   0   0
O            -0.0000020806       15.6245440452        6.3132601995    0   0   0
O            -0.0000070657        8.9283092572        6.3132601995    0   0   0
O            -1.9330362165       18.9726563517        6.3132601995    0   0   0
O            -1.9330401360        5.5801969547        6.3132601995    0   0   0
O            -1.9330408537       12.2764209651        6.3132601995    0   0   0
O            -3.8660742695        8.9283092572        6.3132601995    0   0   0
O            -3.8660812097       15.6245440452        6.3132601995    0   0   0
O            -5.7991080598       12.2764209651        6.3132601995    0   0   0
O            -5.7991153456       18.9726563517        6.3132601995    0   0   0
O            -7.7321484158       15.6245440452        6.3132601995    0   0   0
O            -9.6651825517       18.9726563517        6.3132601995    0   0   0
O            11.5982054412        8.9283092572        6.3132601995    0   0   0
O            11.5982111152       15.6245440452        6.3132601995    0   0   0
O            11.5982134159        2.2320747706        6.3132601995    0   0   0
O            13.5312395747        5.5801969547        6.3132601995    0   0   0
O            13.5312514713       12.2764209651        6.3132601995    0   0   0
O            15.4642794135        2.2320747706        6.3132601995    0   0   0
O            15.4642852615        8.9283092572        6.3132601995    0   0   0
O            17.3973193951        5.5801969547        6.3132601995    0   0   0
O            19.3303592339        2.2320747706        6.3132601995    0   0   0
Ce            0.0000000000        0.0000000000        7.1024297940    0   0   0
Ce            0.0000037479       13.3924587984        7.1024297940    0   0   0
Ce            1.9330314597       16.7405806832        7.1024297940    0   0   0
Ce            1.9330330703        3.3481120052        7.1024297940    0   0   0
Ce            1.9330378826       10.0443464939        7.1024297940    0   0   0
Ce            3.8660670322        0.0000000000        7.1024297940    0   0   0
Ce            3.8660711257       13.3924587984        7.1024297940    0   0   0
Ce            3.8660720173        6.6962341893        7.1024297940    0   0   0
Ce            5.7990988375       16.7405806832        7.1024297940    0   0   0
Ce            5.7991052604       10.0443464939        7.1024297940    0   0   0
Ce            5.7991118561        3.3481120052        7.1024297940    0   0   0
Ce            7.7321385035       13.3924587984        7.1024297940    0   0   0
Ce            7.7321393951        6.6962341893        7.1024297940    0   0   0
Ce            7.7321458180        0.0000000000        7.1024297940    0   0   0
Ce            9.6651726382       10.0443464939        7.1024297940    0   0   0
Ce            9.6651772777       16.7405806832        7.1024297940    0   0   0
Ce            9.6651792339        3.3481120052        7.1024297940    0   0   0
Ce           -0.0000067685        6.6962341893        7.1024297940    0   0   0
Ce           -1.9330339619        3.3481120052        7.1024297940    0   0   0
Ce           -1.9330359181       16.7405806832        7.1024297940    0   0   0
Ce           -1.9330409032       10.0443464939        7.1024297940    0   0   0
Ce           -3.8660738007        6.6962341893        7.1024297940    0   0   0
Ce           -3.8660750380       13.3924587984        7.1024297940    0   0   0
Ce           -5.7991079354       10.0443464939        7.1024297940    0   0   0
Ce           -5.7991147039       16.7405806832        7.1024297940    0   0   0
Ce           -7.7321420701       13.3924587984        7.1024297940    0   0   0
Ce           11.5982067729        6.6962341893        7.1024297940    0   0   0
Ce           11.5982131958        0.0000000000        7.1024297940    0   0   0
Ce           11.5982169437       13.3924587984        7.1024297940    0   0   0
Ce           13.5312446555       16.7405806832        7.1024297940    0   0   0
Ce           13.5312466117        3.3481120052        7.1024297940    0   0   0
Ce           13.5312510784       10.0443464939        7.1024297940    0   0   0
Ce           15.4642805736        0.0000000000        7.1024297940    0   0   0
Ce           15.4642852131        6.6962341893        7.1024297940    0   0   0
Ce           17.3973250519        3.3481120052        7.1024297940    0   0   0
Ce           19.3303590138        0.0000000000        7.1024297940    0   0   0
O             0.0000040439       11.1603843271        7.8916000590    0   0   0
O             1.9330334545        1.1160373853        7.8916000590    0   0   0
O             1.9330379794       14.5084954364        7.8916000590    0   0   0
O             1.9330381787        7.8122720226        7.8916000590    0   0   0
O             3.8660643099       17.8566185164        7.8916000590    0   0   0
O             3.8660714240       11.1603843271        7.8916000590    0   0   0
O             3.8660781902        4.4641495391        7.8916000590    0   0   0
O             5.7991046660       14.5084954364        7.8916000590    0   0   0
O             5.7991055588        7.8122720226        7.8916000590    0   0   0
O             5.7991122380        1.1160373853        7.8916000590    0   0   0
O             7.7321381106       11.1603843271        7.8916000590    0   0   0
O             7.7321441303       17.8566185164        7.8916000590    0   0   0
O             7.7321455703        4.4641495391        7.8916000590    0   0   0
O             9.6651722453        7.8122720226        7.8916000590    0   0   0
O             9.6651796158        1.1160373853        7.8916000590    0   0   0
O             9.6651844886       14.5084954364        7.8916000590    0   0   0
O            -0.0000005933        4.4641495391        7.8916000590    0   0   0
O            -0.0000023766       17.8566185164        7.8916000590    0   0   0
O            -1.9330293984       14.5084954364        7.8916000590    0   0   0
O            -1.9330406048        7.8122720226        7.8916000590    0   0   0
O            -3.8660697567       17.8566185164        7.8916000590    0   0   0
O            -3.8660747396       11.1603843271        7.8916000590    0   0   0
O            -5.7991081842       14.5084954364        7.8916000590    0   0   0
O            -7.7321485402       17.8566185164        7.8916000590    0   0   0
O            11.5982115104       17.8566185164        7.8916000590    0   0   0
O            11.5982122569        4.4641495391        7.8916000590    0   0   0
O            11.5982179310       11.1603843271        7.8916000590    0   0   0
O            13.5312463046        1.1160373853        7.8916000590    0   0   0
O            13.5312518665       14.5084954364        7.8916000590    0   0   0
O            13.5312520657        7.8122720226        7.8916000590    0   0   0
O            15.4642853111       11.1603843271        7.8916000590    0   0   0
O            15.4642920796        4.4641495391        7.8916000590    0   0   0
O            17.3973194458        7.8122720226        7.8916000590    0   0   0
O            17.3973261250        1.1160373853        7.8916000590    0   0   0
O            19.3303594574        4.4641495391        7.8916000590    0   0   0
O            21.2633935028        1.1160373853        7.8916000590    0   0   0
O             1.9374680402       16.7362566377        9.4348514415
O             7.7456685932        6.6981482194        9.4346661053
O            -3.8653020872        6.6941012603        9.4330340381
O            -9.6569544453       16.7481318019        9.4294501913
O             3.8862655888       13.3817064875        9.4397097577
O             9.6672099341        3.3455723391        9.4308971578
O            -1.9364756310        3.3493606276        9.4357351417
O            -7.7185265585       13.4024383649        9.4278755231
O            -0.0070764545        6.6945989648        9.4299724490
O             5.8015179762       16.7400199738        9.4300574345
O            -5.7998621760       16.7418049109        9.4324966037
O            11.5978051042        6.6928505895        9.4317644633
O             1.9321747919       10.0453417796        9.4342571777
O             7.7309852219       -0.0080451718        9.4355016368
O            13.5682156290       10.0560754640        9.4288710683
O            19.3321163002        0.0005018949        9.4328529393
O            -0.0006609587       -0.0003477719        9.4325694404
O             5.8228248435       10.0204504892        9.4457405342
O            -5.7848180453       10.0486564110        9.4299076827
O            11.5982214767       -0.0089438803        9.4311588260
O             3.8641635680       -0.0073189524        9.4323447539
O             9.6623876324       10.0811296823        9.4488906494
O            -1.9307801577       10.0447554641        9.4340800403
O            15.4655764716       -0.0040131811        9.4341166395
O             3.8559530120        6.6944747413        9.4228811643
O             9.6698416763       16.7491758858        9.4309384002
O            -1.9325791727       16.7372251439        9.4341791785
O            15.4753682949        6.6936418796        9.4248842165
O             5.7980220201        3.3183790369        9.4198637939
O             0.0052042607       13.3915310823        9.4360127343
O            11.5983342927       13.4028633295        9.4365249082
O            17.3977151848        3.3493778182        9.4329818503
O             1.9274847246        3.3429009589        9.4270918853
O             7.7810481752       13.3753905128        9.4520958956
O            -3.8615846734       13.3958478314        9.4288387228
O            13.5347451869        3.3392715552        9.4269032291
Ce            1.9385584381       14.5042638020       10.2488454031
Ce            7.7288253685        4.4370330261       10.2187354344
Ce           13.5503726180       14.5254101478       10.2409819205
Ce           19.3295178387        4.4642200704       10.2461169620
Ce            0.0002041657       17.8496227765       10.2438273024
Ce            5.7889622498        7.7841683689       10.2428617685
Ce           11.6015937224       17.8712718825       10.2440503650
Ce           17.4083490619        7.8087946758       10.2474677006
Ce            3.8656234795       17.8558241655       10.2484458801
Ce            9.6866718960        7.8028332317       10.1891578868
Ce           -1.9329016466        7.8121209763       10.2480922383
Ce           -7.7271287971       17.8617203065       10.2479029516
Ce            3.8683803420       11.1436421465       10.2433346459
Ce            9.6690735878        1.1025853911       10.2481484700
Ce           15.4956205650       11.1638322407       10.2420546141
Ce           21.2640327232        1.1232585935       10.2492479279
Ce            1.9234753317        7.8021459693       10.2442114366
Ce            7.7347176896       17.8683035186       10.2441476903
Ce           -3.8652174466       17.8543225446       10.2444165240
Ce           13.5603660488        7.8150157117       10.2272884637
Ce            5.7935672815        1.1055638365       10.2453142693
Ce            0.0001407765       11.1600306337       10.2476603328
Ce           11.6588499469       11.1848786903       10.2120899675
Ce           17.3972420132        1.1172867035       10.2486976851
Ce           -0.0090285144        4.4621220526       10.2442961626
Ce            5.8144516413       14.5124091946       10.2372445480
Ce           -5.7872900936       14.5154998064       10.2439089489
Ce           11.6058720784        4.4544096374       10.2357486751
Ce            1.9301269594        1.1144740962       10.2486604050
Ce            7.7316622824       11.1536137559       10.1974121855
Ce           -3.8555404566       11.1605320980       10.2439692836
Ce           13.5323390811        1.1089899007       10.2461643105
Ce            3.8551862085        4.4478062956       10.2344884168
Ce            9.6903036066       14.5306954121       10.2521301928
Ce           -1.9272984711       14.5084678307       10.2408544751
Ce           15.4705748594        4.4608759516       10.2447129279
O             3.8759743325        8.9297550977       10.9950439214
O             9.6616457866       18.9779347871       11.0314095488
O            -1.9325383350       18.9689911388       11.0307858883
O            15.4814656845        8.9263317030       11.0186557555
O             1.9440310738       12.2670527189       11.0230758065
O             7.7374727002        2.2300118067       11.0172404152
O            13.5460219122       12.2843952679       11.0235642262
O            19.3278188772        2.2307856057       11.0312698570
O             5.8022724498       18.9717137500       11.0323007846
O            -0.0033678180        8.9286929980       11.0283975295
O            -5.8020052270       18.9682720845       11.0287108429
O            11.6632287543        8.9473910635       10.9643604297
O             3.8844006146       15.6219943258       11.0247211147
O             9.6801299023        5.5810270177       11.0570666253
O            -1.9369972394        5.5756351067       11.0305715495
O            -7.7318038351       15.6327088099       11.0320278300
O             1.9375141541       18.9744039049       11.0302590816
O             7.8007549988        8.9060457452       11.0297162554
O            -3.8618642428        8.9251593699       11.0365649944
O            -9.6704102793       18.9772118986       11.0316271749
O             5.7959195745        5.5478413048       10.9371410038
O             0.0012893485       15.6221052226       11.0303881981
O            11.6021394277       15.6347538551       11.0215819302
O            17.3970077575        5.5743321694       11.0318349211
O             5.8747270776       12.2441047693       11.0407494575
O            -0.0050166841        2.2298635075       11.0256671122
O            -5.7889960266       12.2769875000       11.0274588757
O            11.6009967061        2.2269743085       11.0187465437
O             1.9208363578        5.5746419150       11.0087024776
O             7.7370357281       15.6140382613       11.0149458584
O            -3.8652813204       15.6235805564       11.0284365699
O            13.5290817113        5.5813929672       11.0062852439
O             3.8580803823        2.2236716300       11.0140323650
O             9.7773794063       12.3024576555       11.1669748809
O            -1.9323657921       12.2770573551       11.0237005904
O            15.4660602986        2.2325016105       11.0301643270
H             8.6484558122        5.9808130686       13.6150024829
N             8.7216478307        7.0071692899       13.6472469450
C             7.5474064561        7.7272742060       13.5499276054
O             6.4411480804        7.2677810925       13.3623811598
N             7.7396690182        9.1428602449       13.8536175401
C             8.9429656835        9.7746125733       13.4818267532
N             8.9026276871       11.0856604870       13.3689039466
C            10.1067602247        8.9521735414       13.3962913557
C             9.9539442467        7.5960697742       13.5937398253
H            10.8200445953        6.9407549326       13.5940665770
H            11.0597460514        9.3851813640       13.1875553565
H             8.0011930202       11.5436545791       13.5215941289
H             9.5569082147       11.6693681222       12.7472332466
N             7.4328603699        9.3750397375       15.1577775802
C             7.3976676971        8.8522847094       16.2225647051
N             5.8845760256        5.4675907558       16.3788212956
C             6.5222455988        6.3041033833       16.9001918824
N            10.1767640375        6.1408366048       17.0509609014
C             9.2397869058        6.7629051691       17.3852486215
Fe            7.5423051586        7.8009421720       17.9062192601
C             5.8821011377        8.9838660782       17.9551405487
N             4.9073879237        9.6292829136       17.8518463135
C             8.7290087404        9.3524179913       18.5900477517
N             9.3370151483       10.3311189834       18.8138435826
C             7.0460324657        6.8828348613       19.6292048179
N             6.6053844344        5.7926586726       19.7699041074
K_POINTS gamma
CELL_PARAMETERS angstrom
     23.1964263916       0.0000000000       0.0000000000
    -11.5982158708      20.0886929877       0.0000000000
      0.0000000000       0.0000000000      30.0000000000
