&CONTROL
  calculation = 'relax'
  etot_conv_thr =   1.5000000000d-03
  forc_conv_thr =   1.0000000000d-04
  outdir = './out/'
  prefix = 'aiida'
  pseudo_dir = './pseudo/'
  tprnfor = .true.
  tstress = .true.
/
&SYSTEM
  degauss =   2.0000000000d-02
  ecutrho =   2.4000000000d+02
  ecutwfc =   3.0000000000d+01
  ibrav = 0
  nat = 258
  nosym = .false.
  ntyp = 6
  occupations = 'smearing'
  lda_plus_U = .true.
  Hubbard_U(2) = 5.0
  Hubbard_U(6) = 5.0
  smearing = 'mp'
  nspin = 2
  starting_magnetization(1) =   1.0000000000d-01
  starting_magnetization(2) =   4.1666666667d-01
  starting_magnetization(6) =   4.1666666667d-01
/
&ELECTRONS
  scf_must_converge = .false.
  conv_thr =   4.2200000000d-08
  electron_maxstep = 80
  mixing_beta =   1.0000000000d-01
/
&IONS
/
ATOMIC_SPECIES
O      15.9994 O.pbe-n-kjpaw_psl.0.1.UPF
Ce     140.116 Ce.paw.z_12.atompaw.wentzcovitch.v1.2.upf
H      1.00794 H.pbe-rrkjus_psl.1.0.0.UPF
N      14.0067 N.pbe-n-radius_5.UPF
C      12.0107 C.pbe-n-kjpaw_psl.1.0.0.UPF
Fe     55.845 Fe.pbe-spn-kjpaw_psl.0.2.1.UPF
ATOMIC_POSITIONS (angstrom)
O             1.9330270702        5.5801969547        6.3132601995    0   0   0
O             1.9330311637       18.9726563517        6.3132601995    0   0   0
O             1.9330382755       12.2764209651        6.3132601995    0   0   0
O             3.8660652996       15.6245440452        6.3132601995    0   0   0
O             3.8660669066        2.2320747706        6.3132601995    0   0   0
O             3.8660720657        8.9283092572        6.3132601995    0   0   0
O             5.7990971567       18.9726563517        6.3132601995    0   0   0
O             5.7991056556       12.2764209651        6.3132601995    0   0   0
O             5.7991062016        5.5801969547        6.3132601995    0   0   0
O             7.7321312926       15.6245440452        6.3132601995    0   0   0
O             7.7321394435        8.9283092572        6.3132601995    0   0   0
O             7.7321460381        2.2320747706        6.3132601995    0   0   0
O             9.6651716509       12.2764209651        6.3132601995    0   0   0
O             9.6651735794        5.5801969547        6.3132601995    0   0   0
O             9.6651769793       18.9726563517        6.3132601995    0   0   0
O            -0.0000002972        2.2320747706        6.3132601995    0   0   0
O            -0.0000020806       15.6245440452        6.3132601995    0   0   0
O            -0.0000070657        8.9283092572        6.3132601995    0   0   0
O            -1.9330362165       18.9726563517        6.3132601995    0   0   0
O            -1.9330401360        5.5801969547        6.3132601995    0   0   0
O            -1.9330408537       12.2764209651        6.3132601995    0   0   0
O            -3.8660742695        8.9283092572        6.3132601995    0   0   0
O            -3.8660812097       15.6245440452        6.3132601995    0   0   0
O            -5.7991080598       12.2764209651        6.3132601995    0   0   0
O            -5.7991153456       18.9726563517        6.3132601995    0   0   0
O            -7.7321484158       15.6245440452        6.3132601995    0   0   0
O            -9.6651825517       18.9726563517        6.3132601995    0   0   0
O            11.5982054412        8.9283092572        6.3132601995    0   0   0
O            11.5982111152       15.6245440452        6.3132601995    0   0   0
O            11.5982134159        2.2320747706        6.3132601995    0   0   0
O            13.5312395747        5.5801969547        6.3132601995    0   0   0
O            13.5312514713       12.2764209651        6.3132601995    0   0   0
O            15.4642794135        2.2320747706        6.3132601995    0   0   0
O            15.4642852615        8.9283092572        6.3132601995    0   0   0
O            17.3973193951        5.5801969547        6.3132601995    0   0   0
O            19.3303592339        2.2320747706        6.3132601995    0   0   0
Ce            0.0000000000        0.0000000000        7.1024297940    0   0   0
Ce            0.0000037479       13.3924587984        7.1024297940    0   0   0
Ce            1.9330314597       16.7405806832        7.1024297940    0   0   0
Ce            1.9330330703        3.3481120052        7.1024297940    0   0   0
Ce            1.9330378826       10.0443464939        7.1024297940    0   0   0
Ce            3.8660670322        0.0000000000        7.1024297940    0   0   0
Ce            3.8660711257       13.3924587984        7.1024297940    0   0   0
Ce            3.8660720173        6.6962341893        7.1024297940    0   0   0
Ce            5.7990988375       16.7405806832        7.1024297940    0   0   0
Ce            5.7991052604       10.0443464939        7.1024297940    0   0   0
Ce            5.7991118561        3.3481120052        7.1024297940    0   0   0
Ce            7.7321385035       13.3924587984        7.1024297940    0   0   0
Ce            7.7321393951        6.6962341893        7.1024297940    0   0   0
Ce            7.7321458180        0.0000000000        7.1024297940    0   0   0
Ce            9.6651726382       10.0443464939        7.1024297940    0   0   0
Ce            9.6651772777       16.7405806832        7.1024297940    0   0   0
Ce            9.6651792339        3.3481120052        7.1024297940    0   0   0
Ce           -0.0000067685        6.6962341893        7.1024297940    0   0   0
Ce           -1.9330339619        3.3481120052        7.1024297940    0   0   0
Ce           -1.9330359181       16.7405806832        7.1024297940    0   0   0
Ce           -1.9330409032       10.0443464939        7.1024297940    0   0   0
Ce           -3.8660738007        6.6962341893        7.1024297940    0   0   0
Ce           -3.8660750380       13.3924587984        7.1024297940    0   0   0
Ce           -5.7991079354       10.0443464939        7.1024297940    0   0   0
Ce           -5.7991147039       16.7405806832        7.1024297940    0   0   0
Ce           -7.7321420701       13.3924587984        7.1024297940    0   0   0
Ce           11.5982067729        6.6962341893        7.1024297940    0   0   0
Ce           11.5982131958        0.0000000000        7.1024297940    0   0   0
Ce           11.5982169437       13.3924587984        7.1024297940    0   0   0
Ce           13.5312446555       16.7405806832        7.1024297940    0   0   0
Ce           13.5312466117        3.3481120052        7.1024297940    0   0   0
Ce           13.5312510784       10.0443464939        7.1024297940    0   0   0
Ce           15.4642805736        0.0000000000        7.1024297940    0   0   0
Ce           15.4642852131        6.6962341893        7.1024297940    0   0   0
Ce           17.3973250519        3.3481120052        7.1024297940    0   0   0
Ce           19.3303590138        0.0000000000        7.1024297940    0   0   0
O             0.0000040439       11.1603843271        7.8916000590    0   0   0
O             1.9330334545        1.1160373853        7.8916000590    0   0   0
O             1.9330379794       14.5084954364        7.8916000590    0   0   0
O             1.9330381787        7.8122720226        7.8916000590    0   0   0
O             3.8660643099       17.8566185164        7.8916000590    0   0   0
O             3.8660714240       11.1603843271        7.8916000590    0   0   0
O             3.8660781902        4.4641495391        7.8916000590    0   0   0
O             5.7991046660       14.5084954364        7.8916000590    0   0   0
O             5.7991055588        7.8122720226        7.8916000590    0   0   0
O             5.7991122380        1.1160373853        7.8916000590    0   0   0
O             7.7321381106       11.1603843271        7.8916000590    0   0   0
O             7.7321441303       17.8566185164        7.8916000590    0   0   0
O             7.7321455703        4.4641495391        7.8916000590    0   0   0
O             9.6651722453        7.8122720226        7.8916000590    0   0   0
O             9.6651796158        1.1160373853        7.8916000590    0   0   0
O             9.6651844886       14.5084954364        7.8916000590    0   0   0
O            -0.0000005933        4.4641495391        7.8916000590    0   0   0
O            -0.0000023766       17.8566185164        7.8916000590    0   0   0
O            -1.9330293984       14.5084954364        7.8916000590    0   0   0
O            -1.9330406048        7.8122720226        7.8916000590    0   0   0
O            -3.8660697567       17.8566185164        7.8916000590    0   0   0
O            -3.8660747396       11.1603843271        7.8916000590    0   0   0
O            -5.7991081842       14.5084954364        7.8916000590    0   0   0
O            -7.7321485402       17.8566185164        7.8916000590    0   0   0
O            11.5982115104       17.8566185164        7.8916000590    0   0   0
O            11.5982122569        4.4641495391        7.8916000590    0   0   0
O            11.5982179310       11.1603843271        7.8916000590    0   0   0
O            13.5312463046        1.1160373853        7.8916000590    0   0   0
O            13.5312518665       14.5084954364        7.8916000590    0   0   0
O            13.5312520657        7.8122720226        7.8916000590    0   0   0
O            15.4642853111       11.1603843271        7.8916000590    0   0   0
O            15.4642920796        4.4641495391        7.8916000590    0   0   0
O            17.3973194458        7.8122720226        7.8916000590    0   0   0
O            17.3973261250        1.1160373853        7.8916000590    0   0   0
O            19.3303594574        4.4641495391        7.8916000590    0   0   0
O            21.2633935028        1.1160373853        7.8916000590    0   0   0
O             1.8918369512       16.7698559275        9.4160837274
O             7.7527939385        6.6298506627        9.4322255355
O            -3.8626706128        6.6944290509        9.4591489259
O            -9.6475244605       16.7541710878        9.4494565343
O             3.8569824402       13.4555766542        9.4149461252
O             9.6673577626        3.3286631641        9.4424643783
O            -1.9329045004        3.3494597751        9.4578135409
O            -7.7130281080       13.4070363079        9.4519360801
O            -0.0124731334        6.6716114319        9.4481675339
O             5.7768816641       16.7589454359        9.4308840825
O            -5.7995223030       16.7418851751        9.4529612113
O            11.5766230469        6.6730836658        9.4367908587
O             1.9031081658        9.9605973415        9.3861591690
O             7.7302413813       -0.0042095824        9.4554110566
O            13.5837765393       10.0757991298        9.4205713535
O            19.3356181757        0.0095928051        9.4573705241
O             0.0093531404        0.0056465179        9.4536153531
O             5.8036020247       10.0178396592        9.4067615686
O            -5.7762336404       10.0548584055        9.4515278776
O            11.5928745105        0.0029343774        9.4533968813
O             3.8643577549       -0.0048024064        9.4528895002
O             9.6685361736       10.0628651895        9.4483488220
O            -1.9520832183       10.0418105100        9.4424790339
O            15.4527548468        0.0150245720        9.4461358195
O             3.8598415720        6.6614013993        9.4376739340
O             9.6797474177       16.7509998468        9.4492049666
O            -1.9346414743       16.7393500131        9.4618317606
O            15.4754875868        6.6885182791        9.4526712646
O             5.7992970311        3.3075123275        9.4335120722
O            -0.0467278177       13.4219347451        9.4172457616
O            11.6432017841       13.4261172202        9.4229449572
O            17.3947346711        3.3462679589        9.4607801596
O             1.9283124402        3.3378417345        9.4514557552
O             7.7265678780       13.3668384625        9.4535571666
O            -3.8731511350       13.3928616892        9.4517430875
O            13.5313782862        3.3349557008        9.4481082584
Ce            1.8878640456       14.5418205215       10.1694658133
Ce            7.7310144097        4.4136622006       10.2297237651
Ce           13.5556823821       14.5349344579       10.2528179080
Ce           19.3274146724        4.4614660794       10.2773035413
Ce           -0.0191779538       17.8754568497       10.2552873159
Ce            5.7941998697        7.7581343386       10.2142584872
Ce           11.6024158370       17.8700552458       10.2724486833
Ce           17.4072851103        7.8121178199       10.2786086101
Ce            3.8482153937       17.8921825772       10.2452938070
Ce            9.6861420428        7.7844102240       10.2050422418
Ce           -1.9398679210        7.7942562273       10.2773519854
Ce           -7.7286717989       17.8633931175       10.2696251831
Ce            3.8473710820       11.0998555965       10.1691612067
Ce            9.6617184726        1.1088374889       10.2689464763
Ce           15.4952967819       11.1637557880       10.2583330091
Ce           21.2673758618        1.1214180578       10.2780039432
Ce            1.9152673544        7.7613030744       10.2386445124
Ce            7.7383233920       17.8727489138       10.2702241314
Ce           -3.8736761268       17.8565582416       10.2730306966
Ce           13.5605857204        7.8199295631       10.2397779602
Ce            5.7923295003        1.1044763563       10.2671765906
Ce           -0.0383777081       11.1197631228       10.2107372014
Ce           11.6598456915       11.1982404511       10.2166597714
Ce           17.4048746536        1.1252771611       10.2773437901
Ce           -0.0120242078        4.4522631038       10.2742586337
Ce            5.7951233601       14.5441804924       10.2149045089
Ce           -5.7966236364       14.5154200283       10.2709049104
Ce           11.6078934998        4.4513646184       10.2528054394
Ce            1.9311584701        1.1120230714       10.2739035822
Ce            7.7353250821       11.1462073361       10.1962094683
Ce           -3.8702123539       11.1646419692       10.2774938391
Ce           13.5271809294        1.1269808411       10.2736461312
Ce            3.8559674610        4.4334804439       10.2529995728
Ce            9.6891877834       14.5127010506       10.2514887218
Ce           -1.9550909950       14.5028231179       10.2577596747
Ce           15.4686030923        4.4576780381       10.2773893812
O             3.8614849894        8.9044983390       11.0003110407
O             9.6717297859       18.9912799568       11.0955799929
O            -1.9376473492       18.9760241623       11.0911368146
O            15.4873097650        8.9306965213       11.0798862265
O             1.9112917796       12.2114254395       10.8833287819
O             7.7382629676        2.2340027243       11.0865056639
O            13.5338910625       12.2705172725       11.0721306981
O            19.3290324233        2.2336061901       11.0936234412
O             5.7914435507       18.9986320143       11.0716491566
O            -0.0201544298        8.9107716223       11.0557484540
O            -5.7990825312       18.9695931901       11.0888598509
O            11.7189157763        8.9397433884       10.9886022671
O             3.7963535274       15.6718842802       11.0236809980
O             9.6763465051        5.5544707592       11.1008005273
O            -1.9374340327        5.5745484833       11.0953580105
O            -7.7265091584       15.6341251815       11.0892025716
O             1.9271464521       18.9756301722       11.0844938327
O             7.7343627936        8.8886577268       10.9232352695
O            -3.8684454154        8.9307509033       11.0932356276
O            -9.6607939355       18.9787793029       11.0932002658
O             5.7933781089        5.5422411981       11.0142627123
O             0.0335282691       15.6106056044       11.0891916421
O            11.6013956407       15.6367912821       11.0733077899
O            17.3963114102        5.5763966855       11.0938772636
O             5.7184955518       12.2214850461       10.9465274529
O            -0.0007663143        2.2288575975       11.0894985232
O            -5.7894431621       12.2782292587       11.0946197191
O            11.5972765424        2.2293141134       11.0921345841
O             1.9149808512        5.5673466897       11.0922984333
O             7.7020692584       15.6640277154       11.0277631210
O            -3.8707627552       15.6263031650       11.0868885708
O            13.5309231917        5.5615729227       11.0761896950
O             3.8634041016        2.2183987858       11.0865637436
O             9.7824682374       12.3371566893       11.0202718230
O            -1.9326468877       12.2803097831       11.0724698509
O            15.4588110186        2.2332353818       11.0939372972
H             1.1691739671       12.9923192106       13.9363954768
N             2.1085734642       13.1537415618       13.5776895514
C             2.8403026961       14.4013394757       13.8735061126
N             4.2185790697       14.1579141622       13.4257961422
C             4.3254043883       12.8685065289       13.3804233994
C             5.5863908445       12.0789041058       13.4434168438
O             6.6914126836       12.5924059092       13.5822315837
N             5.3474557840       10.7226269290       13.6119862513
C             4.0977490484       10.1759273923       13.8271793529
N             4.0217634371        8.9159102575       14.1912075998
N             2.9057507026       10.8888010719       13.7087587626
C             3.0501777610       12.1722502280       13.5479843053
H             2.4186547589       15.2989007710       13.3944671557
H             6.2196954951       10.1051526882       13.8109615573
H             3.1010827797        8.5451776561       14.4499577349
H             4.8737091013        8.3009395702       14.2089078250
H             8.5622783789        6.0619731461       13.6726272504
N             8.6736493552        7.0483450736       13.7858961640
C             7.4947941581        7.8434491294       13.8531690002
O             6.3737945310        7.3028824968       13.8015521472
N             7.6790858247        9.1842166521       13.9067088080
C             8.8867871167        9.7522866713       13.6492973805
N             8.9286649002       11.0845474586       13.4649978013
C            10.0674282796        8.9489393931       13.5064268123
C             9.9227869021        7.6097979588       13.5947885503
H            10.7634372862        6.9009448829       13.4952552013
H            11.0490897889        9.4111004845       13.3332001636
H             8.0551289506       11.6464505326       13.6421779781
H             9.7038202065       11.5518656584       13.0261749689
N             3.0040183367       14.4585228451       15.2999104173
C             3.0738044702       13.8464385487       16.3058592770
N             1.1486737691       10.2038707258       16.5149889779
C             1.7593047734       11.0574902599       17.0600558540
N             5.5261959750       10.8186347915       17.2537465776
C             4.5905960654       11.4369400375       17.5918096919
Fe            2.8706329720       12.5685776038       17.9880036481
C             1.1356056841       13.6520927546       18.0528371374
N             0.2310720226       14.3783317533       17.9220540406
C             4.0457980502       14.0980636198       18.6548818097
N             4.6615744629       15.0886853671       18.8891982965
C             2.6728769523       11.8902313660       19.8198264386
N             2.5313364463       11.5348947836       20.9388995870
K_POINTS gamma
CELL_PARAMETERS angstrom
     23.1964263916       0.0000000000       0.0000000000
    -11.5982158708      20.0886929877       0.0000000000
      0.0000000000       0.0000000000      30.0000000000
