&CONTROL
  calculation = 'scf'
  etot_conv_thr =   1.5000000000d-03
  forc_conv_thr =   1.0000000000d-04
  outdir = './out/'
  prefix = 'aiida'
  pseudo_dir = './pseudo/'
  wf_collect=.TRUE.
  disk_io   = 'high'
  tprnfor = .false.
  tstress = .false.
  verbosity = 'high'
  restart_mode = 'from_scratch'
/
&SYSTEM
  degauss =   2.0000000000d-02
  ecutrho =   1.6000000000d+02
  ecutwfc =   4.0000000000d+01
  ibrav = 0
  nat = 229
  nosym = .false.
  ntyp = 6
  occupations = 'smearing'
  smearing = 'mp'
  nspin = 2
  starting_magnetization(1) =   1.0000000000d-01
  starting_magnetization(2) =   4.1666666667d-01
  starting_magnetization(6) =   4.1666666667d-01
  input_dft = 'pbe0'
  ecutfock = 40
  ace = .true.
  localization_thr = 0.01
/
&ELECTRONS
  conv_thr=1.0D-6
  !adaptive_thr = .True.
  !conv_thr_init = 1.D-3 
  !conv_thr_multi = 1.D-2
  electron_maxstep=300
  mixing_mode="local-TF"
  mixing_beta = 0.1
  diagonalization = 'david'
  diago_full_acc = .False.
  startingpot = 'atomic'
  startingwfc = 'atomic+random'
/
&IONS
/
ATOMIC_SPECIES
O      15.9994 O_ONCV_PBE-1.2.upf
Ce     140.116 Ce.UPF
H      1.00794 H_ONCV_PBE-1.2.upf
N      14.0067 N_ONCV_PBE-1.2.upf
C      12.0107 O_ONCV_PBE-1.2.upf 
Fe     55.845 Fe_ONCV_PBE-1.2.upf
ATOMIC_POSITIONS (angstrom)
O             1.9330270702        5.5801969547        6.3132601995    0   0   0
O             1.9330311637       18.9726563517        6.3132601995    0   0   0
O             1.9330382755       12.2764209651        6.3132601995    0   0   0
O             3.8660652996       15.6245440452        6.3132601995    0   0   0
O             3.8660669066        2.2320747706        6.3132601995    0   0   0
O             3.8660720657        8.9283092572        6.3132601995    0   0   0
O             5.7990971567       18.9726563517        6.3132601995    0   0   0
O             5.7991056556       12.2764209651        6.3132601995    0   0   0
O             5.7991062016        5.5801969547        6.3132601995    0   0   0
O             7.7321312926       15.6245440452        6.3132601995    0   0   0
O             7.7321394435        8.9283092572        6.3132601995    0   0   0
O             7.7321460381        2.2320747706        6.3132601995    0   0   0
O             9.6651716509       12.2764209651        6.3132601995    0   0   0
O             9.6651735794        5.5801969547        6.3132601995    0   0   0
O             9.6651769793       18.9726563517        6.3132601995    0   0   0
O            -0.0000002972        2.2320747706        6.3132601995    0   0   0
O            -0.0000020806       15.6245440452        6.3132601995    0   0   0
O            -0.0000070657        8.9283092572        6.3132601995    0   0   0
O            -1.9330362165       18.9726563517        6.3132601995    0   0   0
O            -1.9330401360        5.5801969547        6.3132601995    0   0   0
O            -1.9330408537       12.2764209651        6.3132601995    0   0   0
O            -3.8660742695        8.9283092572        6.3132601995    0   0   0
O            -3.8660812097       15.6245440452        6.3132601995    0   0   0
O            -5.7991080598       12.2764209651        6.3132601995    0   0   0
O            -5.7991153456       18.9726563517        6.3132601995    0   0   0
O            -7.7321484158       15.6245440452        6.3132601995    0   0   0
O            -9.6651825517       18.9726563517        6.3132601995    0   0   0
O            11.5982054412        8.9283092572        6.3132601995    0   0   0
O            11.5982111152       15.6245440452        6.3132601995    0   0   0
O            11.5982134159        2.2320747706        6.3132601995    0   0   0
O            13.5312395747        5.5801969547        6.3132601995    0   0   0
O            13.5312514713       12.2764209651        6.3132601995    0   0   0
O            15.4642794135        2.2320747706        6.3132601995    0   0   0
O            15.4642852615        8.9283092572        6.3132601995    0   0   0
O            17.3973193951        5.5801969547        6.3132601995    0   0   0
O            19.3303592339        2.2320747706        6.3132601995    0   0   0
Ce            0.0000000000        0.0000000000        7.1024297940    0   0   0
Ce            0.0000037479       13.3924587984        7.1024297940    0   0   0
Ce            1.9330314597       16.7405806832        7.1024297940    0   0   0
Ce            1.9330330703        3.3481120052        7.1024297940    0   0   0
Ce            1.9330378826       10.0443464939        7.1024297940    0   0   0
Ce            3.8660670322        0.0000000000        7.1024297940    0   0   0
Ce            3.8660711257       13.3924587984        7.1024297940    0   0   0
Ce            3.8660720173        6.6962341893        7.1024297940    0   0   0
Ce            5.7990988375       16.7405806832        7.1024297940    0   0   0
Ce            5.7991052604       10.0443464939        7.1024297940    0   0   0
Ce            5.7991118561        3.3481120052        7.1024297940    0   0   0
Ce            7.7321385035       13.3924587984        7.1024297940    0   0   0
Ce            7.7321393951        6.6962341893        7.1024297940    0   0   0
Ce            7.7321458180        0.0000000000        7.1024297940    0   0   0
Ce            9.6651726382       10.0443464939        7.1024297940    0   0   0
Ce            9.6651772777       16.7405806832        7.1024297940    0   0   0
Ce            9.6651792339        3.3481120052        7.1024297940    0   0   0
Ce           -0.0000067685        6.6962341893        7.1024297940    0   0   0
Ce           -1.9330339619        3.3481120052        7.1024297940    0   0   0
Ce           -1.9330359181       16.7405806832        7.1024297940    0   0   0
Ce           -1.9330409032       10.0443464939        7.1024297940    0   0   0
Ce           -3.8660738007        6.6962341893        7.1024297940    0   0   0
Ce           -3.8660750380       13.3924587984        7.1024297940    0   0   0
Ce           -5.7991079354       10.0443464939        7.1024297940    0   0   0
Ce           -5.7991147039       16.7405806832        7.1024297940    0   0   0
Ce           -7.7321420701       13.3924587984        7.1024297940    0   0   0
Ce           11.5982067729        6.6962341893        7.1024297940    0   0   0
Ce           11.5982131958        0.0000000000        7.1024297940    0   0   0
Ce           11.5982169437       13.3924587984        7.1024297940    0   0   0
Ce           13.5312446555       16.7405806832        7.1024297940    0   0   0
Ce           13.5312466117        3.3481120052        7.1024297940    0   0   0
Ce           13.5312510784       10.0443464939        7.1024297940    0   0   0
Ce           15.4642805736        0.0000000000        7.1024297940    0   0   0
Ce           15.4642852131        6.6962341893        7.1024297940    0   0   0
Ce           17.3973250519        3.3481120052        7.1024297940    0   0   0
Ce           19.3303590138        0.0000000000        7.1024297940    0   0   0
O             0.0000040439       11.1603843271        7.8916000590    0   0   0
O             1.9330334545        1.1160373853        7.8916000590    0   0   0
O             1.9330379794       14.5084954364        7.8916000590    0   0   0
O             1.9330381787        7.8122720226        7.8916000590    0   0   0
O             3.8660643099       17.8566185164        7.8916000590    0   0   0
O             3.8660714240       11.1603843271        7.8916000590    0   0   0
O             3.8660781902        4.4641495391        7.8916000590    0   0   0
O             5.7991046660       14.5084954364        7.8916000590    0   0   0
O             5.7991055588        7.8122720226        7.8916000590    0   0   0
O             5.7991122380        1.1160373853        7.8916000590    0   0   0
O             7.7321381106       11.1603843271        7.8916000590    0   0   0
O             7.7321441303       17.8566185164        7.8916000590    0   0   0
O             7.7321455703        4.4641495391        7.8916000590    0   0   0
O             9.6651722453        7.8122720226        7.8916000590    0   0   0
O             9.6651796158        1.1160373853        7.8916000590    0   0   0
O             9.6651844886       14.5084954364        7.8916000590    0   0   0
O            -0.0000005933        4.4641495391        7.8916000590    0   0   0
O            -0.0000023766       17.8566185164        7.8916000590    0   0   0
O            -1.9330293984       14.5084954364        7.8916000590    0   0   0
O            -1.9330406048        7.8122720226        7.8916000590    0   0   0
O            -3.8660697567       17.8566185164        7.8916000590    0   0   0
O            -3.8660747396       11.1603843271        7.8916000590    0   0   0
O            -5.7991081842       14.5084954364        7.8916000590    0   0   0
O            -7.7321485402       17.8566185164        7.8916000590    0   0   0
O            11.5982115104       17.8566185164        7.8916000590    0   0   0
O            11.5982122569        4.4641495391        7.8916000590    0   0   0
O            11.5982179310       11.1603843271        7.8916000590    0   0   0
O            13.5312463046        1.1160373853        7.8916000590    0   0   0
O            13.5312518665       14.5084954364        7.8916000590    0   0   0
O            13.5312520657        7.8122720226        7.8916000590    0   0   0
O            15.4642853111       11.1603843271        7.8916000590    0   0   0
O            15.4642920796        4.4641495391        7.8916000590    0   0   0
O            17.3973194458        7.8122720226        7.8916000590    0   0   0
O            17.3973261250        1.1160373853        7.8916000590    0   0   0
O            19.3303594574        4.4641495391        7.8916000590    0   0   0
O            21.2633935028        1.1160373853        7.8916000590    0   0   0
O             1.9320459627       16.7414561964        9.4335460332
O             7.7364176754        6.8131531028        9.5108831976
O            -3.8657264803        6.6964332708        9.4303759491
O            -9.6636370656       16.7418389364        9.4334026936
O             3.8668240279       13.3927215397        9.4377295931
O             9.6672925548        3.3482358931        9.4382166273
O            -1.9347394685        3.3471798550        9.4326905172
O            -7.7366755842       13.3898317733        9.4356273137
O            -0.0139428839        6.6973159251        9.4305384312
O             5.7924627993       16.7522917746        9.4318609661
O            -5.7996537318       16.7402126385        9.4336486428
O            11.6366855666        6.6770970548        9.4165671686
O             1.9316464157       10.0455736201        9.4360989449
O             7.7325382400        0.0028007702        9.4341346558
O            13.5326699521       10.0448137052        9.4362649604
O            19.3306846362        0.0023208752        9.4330676866
O             0.0001661680        0.0003375090        9.4300778458
O             5.8939725781        9.9944874246        9.5109880612
O            -5.7975484716       10.0454527060        9.4329951167
O            11.5988243162       -0.0026583513        9.4324257165
O             3.8657771455       -0.0037979732        9.4318714446
O             9.5763360139        9.9976292725        9.5055681001
O            -1.9349961989       10.0455364646        9.4325919030
O            15.4643936234       -0.0000237772        9.4304407521
O             3.8278281547        6.6795725187        9.4160001176
O             9.6726487336       16.7518838955        9.4324399837
O            -1.9327408536       16.7400542810        9.4332810934
O            15.4784233665        6.6975405196        9.4310604176
O             5.7979416075        3.3451171559        9.4388005063
O             0.0043496063       13.3900247899        9.4353913846
O            11.5979482540       13.3936688106        9.4373737077
O            17.3991671046        3.3469567093        9.4328496159
O             1.9273236234        3.3381350716        9.4327860001
O             7.7340720596       13.4394093944        9.4163383130
O            -3.8662939110       13.3921511349        9.4335262730
O            13.5370406950        3.3372128185        9.4323386814
Ce            1.9283244016       14.5133610012       10.2414548940
Ce            7.7318071032        4.4504803771       10.2426400196
Ce           13.5363748092       14.5137762855       10.2419101671
Ce           19.3305731086        4.4629430998       10.2485554730
Ce           -0.0027839561       17.8555051945       10.2430950990
Ce            5.6477042660        7.7270213911       10.1824682010
Ce           11.6043051107       17.8696212548       10.2458042877
Ce           17.4100688841        7.8106123057       10.2453965378
Ce            3.8605053487       17.8692762310       10.2455321855
Ce            9.8196921696        7.7263824538       10.1828259072
Ce           -1.9448324864        7.8106030684       10.2453673546
Ce           -7.7287334935       17.8561026636       10.2429916014
Ce            3.8527664373       11.1672325437       10.2405389922
Ce            9.6674995408        1.1108467281       10.2415951287
Ce           15.4716077346       11.1612367221       10.2413519670
Ce           21.2623854535        1.1181819104       10.2485204990
Ce            1.8817630847        7.8059694502       10.2439437707
Ce            7.7320227899       17.8750813440       10.2492745064
Ce           -3.8658812537       17.8559065751       10.2450091992
Ce           13.5843952928        7.8049815581       10.2438521562
Ce            5.7976468122        1.1110141331       10.2428473335
Ce           -0.0069401957       11.1612112915       10.2416528033
Ce           11.6112101402       11.1675124574       10.2371951808
Ce           17.3986038939        1.1178669261       10.2483486268
Ce           -0.0136338471        4.4565836976       10.2479696730
Ce            5.7782262561       14.5601625511       10.2436789770
Ce           -5.7981863402       14.5086520842       10.2443170690
Ce           11.6296483214        4.4232698492       10.2476276127
Ce            1.9265329865        1.1081055115       10.2451914537
Ce            7.7336450921       11.3446993593       10.1892722331
Ce           -3.8659760860       11.1627235955       10.2423531038
Ce           13.5383273274        1.1071991666       10.2454649707
Ce            3.8365205518        4.4243430727       10.2505940350
Ce            9.6867825233       14.5603601143       10.2432381042
Ce           -1.9334964953       14.5086349783       10.2442382860
Ce           15.4788274744        4.4559259349       10.2480470022
O             3.8552984415        8.8984252416       11.0056240085
O             9.6662725421       18.9808922067       11.0366405165
O            -1.9330393606       18.9742734389       11.0313546631
O            15.4710230904        8.9236264411       11.0359309633
O             1.9573358473       12.2629015907       11.0270446860
O             7.7343185132        2.2557848381       11.0208510422
O            13.5066914857       12.2617623263       11.0293094948
O            19.3304001490        2.2327135656       11.0386319297
O             5.7977862839       18.9812462201       11.0368817667
O            -0.0078011947        8.9239740978       11.0343674596
O            -5.7979687855       18.9742297131       11.0316277516
O            11.6096006291        8.8968493707       11.0097786194
O             3.8672028725       15.6336784738       11.0363975045
O             9.6995692280        5.5925500117       10.9992546891
O            -1.9405886109        5.5780819687       11.0356269563
O            -7.7353837572       15.6204978507       11.0322748967
O             1.9372649736       18.9739851749       11.0356825628
O             7.7619943673        8.9815360333       11.5102684093
O            -3.8668885364        8.9247297406       11.0359708407
O            -9.6688615477       18.9732419938       11.0357401732
O             5.7684688173        5.5955494019       10.9762119708
O             0.0036689179       15.6212042434       11.0319932832
O            11.5966668185       15.6329445980       11.0367679400
O            17.4055304686        5.5780594459       11.0356638282
O             5.8284892594       12.3090943760       11.0126311182
O            -0.0065242778        2.2280923326       11.0349818081
O            -5.8029010813       12.2746240328       11.0325296929
O            11.6070988729        2.2285203120       11.0317644728
O             1.9111229176        5.5702913918       11.0217705912
O             7.7318811213       15.6518571387       11.0302872766
O            -3.8661634170       15.6234590041       11.0350404466
O            13.5550361190        5.5690105069       11.0224953230
O             3.8566781552        2.2268647091       11.0282014843
O             9.6384528762       12.3086576358       11.0151738170
O            -1.9298757701       12.2748513926       11.0322042091
O            15.4709893881        2.2273603450       11.0351428101
N             7.7642438027        8.7607402155       12.7621259698
C             7.7736521284        8.5194018921       13.9055571107
N             5.7517213767        5.3812031818       14.3714959631
C             6.3631790516        6.1949308266       14.9599372684
N            10.1995803700        6.0083400122       15.2384098237
C             9.2211447930        6.5937484043       15.5230236957
Fe            7.4858875917        7.7388644272       15.8550288797
C             5.7488169793        8.9186159944       15.9149031280
N             4.8039077966        9.6136000862       15.8471692170
C             8.6410613071        9.3478868242       16.5471461543
N             9.2980504604       10.2829660745       16.8107307750
C             7.2240827834        7.0428634326       17.7835575525
N             7.0700829691        6.6432436465       18.8781646721
K_POINTS gamma
CELL_PARAMETERS angstrom
     23.1964263916       0.0000000000       0.0000000000
    -11.5982158708      20.0886929877       0.0000000000
      0.0000000000       0.0000000000      30.0000000000
