&CONTROL
  calculation = 'relax'
  etot_conv_thr =   1.5000000000d-03
  forc_conv_thr =   1.0000000000d-04
  outdir = './out/'
  prefix = 'aiida'
  pseudo_dir = './pseudo/'
  tprnfor = .true.
  tstress = .true.
/
&SYSTEM
  degauss =   2.0000000000d-02
  ecutrho =   2.4000000000d+02
  ecutwfc =   3.0000000000d+01
  ibrav = 0
  nat = 245
  nosym = .false.
  ntyp = 6
  occupations = 'smearing'
  lda_plus_U = .true.
  Hubbard_U(2) = 5.0
  Hubbard_U(6) = 5.0
  smearing = 'mp'
  nspin = 2
  starting_magnetization(1) =   1.0000000000d-01
  starting_magnetization(2) =   4.1666666667d-01
  starting_magnetization(6) =   4.1666666667d-01
/
&ELECTRONS
  scf_must_converge = .false.
  conv_thr =   4.2200000000d-06
  electron_maxstep = 80
  mixing_beta =   1.0000000000d-01
/
&IONS
/
ATOMIC_SPECIES
O      15.9994 O.pbe-n-kjpaw_psl.0.1.UPF
Ce     140.116 Ce.paw.z_12.atompaw.wentzcovitch.v1.2.upf
H      1.00794 H.pbe-rrkjus_psl.1.0.0.UPF
N      14.0067 N.pbe-n-radius_5.UPF
C      12.0107 C.pbe-n-kjpaw_psl.1.0.0.UPF
Fe     55.845 Fe.pbe-spn-kjpaw_psl.0.2.1.UPF
ATOMIC_POSITIONS (angstrom)
O             1.9330270702        5.5801969547        6.3132601995    0   0   0
O             1.9330311637       18.9726563517        6.3132601995    0   0   0
O             1.9330382755       12.2764209651        6.3132601995    0   0   0
O             3.8660652996       15.6245440452        6.3132601995    0   0   0
O             3.8660669066        2.2320747706        6.3132601995    0   0   0
O             3.8660720657        8.9283092572        6.3132601995    0   0   0
O             5.7990971567       18.9726563517        6.3132601995    0   0   0
O             5.7991056556       12.2764209651        6.3132601995    0   0   0
O             5.7991062016        5.5801969547        6.3132601995    0   0   0
O             7.7321312926       15.6245440452        6.3132601995    0   0   0
O             7.7321394435        8.9283092572        6.3132601995    0   0   0
O             7.7321460381        2.2320747706        6.3132601995    0   0   0
O             9.6651716509       12.2764209651        6.3132601995    0   0   0
O             9.6651735794        5.5801969547        6.3132601995    0   0   0
O             9.6651769793       18.9726563517        6.3132601995    0   0   0
O            -0.0000002972        2.2320747706        6.3132601995    0   0   0
O            -0.0000020806       15.6245440452        6.3132601995    0   0   0
O            -0.0000070657        8.9283092572        6.3132601995    0   0   0
O            -1.9330362165       18.9726563517        6.3132601995    0   0   0
O            -1.9330401360        5.5801969547        6.3132601995    0   0   0
O            -1.9330408537       12.2764209651        6.3132601995    0   0   0
O            -3.8660742695        8.9283092572        6.3132601995    0   0   0
O            -3.8660812097       15.6245440452        6.3132601995    0   0   0
O            -5.7991080598       12.2764209651        6.3132601995    0   0   0
O            -5.7991153456       18.9726563517        6.3132601995    0   0   0
O            -7.7321484158       15.6245440452        6.3132601995    0   0   0
O            -9.6651825517       18.9726563517        6.3132601995    0   0   0
O            11.5982054412        8.9283092572        6.3132601995    0   0   0
O            11.5982111152       15.6245440452        6.3132601995    0   0   0
O            11.5982134159        2.2320747706        6.3132601995    0   0   0
O            13.5312395747        5.5801969547        6.3132601995    0   0   0
O            13.5312514713       12.2764209651        6.3132601995    0   0   0
O            15.4642794135        2.2320747706        6.3132601995    0   0   0
O            15.4642852615        8.9283092572        6.3132601995    0   0   0
O            17.3973193951        5.5801969547        6.3132601995    0   0   0
O            19.3303592339        2.2320747706        6.3132601995    0   0   0
Ce            0.0000000000        0.0000000000        7.1024297940    0   0   0
Ce            0.0000037479       13.3924587984        7.1024297940    0   0   0
Ce            1.9330314597       16.7405806832        7.1024297940    0   0   0
Ce            1.9330330703        3.3481120052        7.1024297940    0   0   0
Ce            1.9330378826       10.0443464939        7.1024297940    0   0   0
Ce            3.8660670322        0.0000000000        7.1024297940    0   0   0
Ce            3.8660711257       13.3924587984        7.1024297940    0   0   0
Ce            3.8660720173        6.6962341893        7.1024297940    0   0   0
Ce            5.7990988375       16.7405806832        7.1024297940    0   0   0
Ce            5.7991052604       10.0443464939        7.1024297940    0   0   0
Ce            5.7991118561        3.3481120052        7.1024297940    0   0   0
Ce            7.7321385035       13.3924587984        7.1024297940    0   0   0
Ce            7.7321393951        6.6962341893        7.1024297940    0   0   0
Ce            7.7321458180        0.0000000000        7.1024297940    0   0   0
Ce            9.6651726382       10.0443464939        7.1024297940    0   0   0
Ce            9.6651772777       16.7405806832        7.1024297940    0   0   0
Ce            9.6651792339        3.3481120052        7.1024297940    0   0   0
Ce           -0.0000067685        6.6962341893        7.1024297940    0   0   0
Ce           -1.9330339619        3.3481120052        7.1024297940    0   0   0
Ce           -1.9330359181       16.7405806832        7.1024297940    0   0   0
Ce           -1.9330409032       10.0443464939        7.1024297940    0   0   0
Ce           -3.8660738007        6.6962341893        7.1024297940    0   0   0
Ce           -3.8660750380       13.3924587984        7.1024297940    0   0   0
Ce           -5.7991079354       10.0443464939        7.1024297940    0   0   0
Ce           -5.7991147039       16.7405806832        7.1024297940    0   0   0
Ce           -7.7321420701       13.3924587984        7.1024297940    0   0   0
Ce           11.5982067729        6.6962341893        7.1024297940    0   0   0
Ce           11.5982131958        0.0000000000        7.1024297940    0   0   0
Ce           11.5982169437       13.3924587984        7.1024297940    0   0   0
Ce           13.5312446555       16.7405806832        7.1024297940    0   0   0
Ce           13.5312466117        3.3481120052        7.1024297940    0   0   0
Ce           13.5312510784       10.0443464939        7.1024297940    0   0   0
Ce           15.4642805736        0.0000000000        7.1024297940    0   0   0
Ce           15.4642852131        6.6962341893        7.1024297940    0   0   0
Ce           17.3973250519        3.3481120052        7.1024297940    0   0   0
Ce           19.3303590138        0.0000000000        7.1024297940    0   0   0
O             0.0000040439       11.1603843271        7.8916000590    0   0   0
O             1.9330334545        1.1160373853        7.8916000590    0   0   0
O             1.9330379794       14.5084954364        7.8916000590    0   0   0
O             1.9330381787        7.8122720226        7.8916000590    0   0   0
O             3.8660643099       17.8566185164        7.8916000590    0   0   0
O             3.8660714240       11.1603843271        7.8916000590    0   0   0
O             3.8660781902        4.4641495391        7.8916000590    0   0   0
O             5.7991046660       14.5084954364        7.8916000590    0   0   0
O             5.7991055588        7.8122720226        7.8916000590    0   0   0
O             5.7991122380        1.1160373853        7.8916000590    0   0   0
O             7.7321381106       11.1603843271        7.8916000590    0   0   0
O             7.7321441303       17.8566185164        7.8916000590    0   0   0
O             7.7321455703        4.4641495391        7.8916000590    0   0   0
O             9.6651722453        7.8122720226        7.8916000590    0   0   0
O             9.6651796158        1.1160373853        7.8916000590    0   0   0
O             9.6651844886       14.5084954364        7.8916000590    0   0   0
O            -0.0000005933        4.4641495391        7.8916000590    0   0   0
O            -0.0000023766       17.8566185164        7.8916000590    0   0   0
O            -1.9330293984       14.5084954364        7.8916000590    0   0   0
O            -1.9330406048        7.8122720226        7.8916000590    0   0   0
O            -3.8660697567       17.8566185164        7.8916000590    0   0   0
O            -3.8660747396       11.1603843271        7.8916000590    0   0   0
O            -5.7991081842       14.5084954364        7.8916000590    0   0   0
O            -7.7321485402       17.8566185164        7.8916000590    0   0   0
O            11.5982115104       17.8566185164        7.8916000590    0   0   0
O            11.5982122569        4.4641495391        7.8916000590    0   0   0
O            11.5982179310       11.1603843271        7.8916000590    0   0   0
O            13.5312463046        1.1160373853        7.8916000590    0   0   0
O            13.5312518665       14.5084954364        7.8916000590    0   0   0
O            13.5312520657        7.8122720226        7.8916000590    0   0   0
O            15.4642853111       11.1603843271        7.8916000590    0   0   0
O            15.4642920796        4.4641495391        7.8916000590    0   0   0
O            17.3973194458        7.8122720226        7.8916000590    0   0   0
O            17.3973261250        1.1160373853        7.8916000590    0   0   0
O            19.3303594574        4.4641495391        7.8916000590    0   0   0
O            21.2633935028        1.1160373853        7.8916000590    0   0   0
O             1.9246906040       16.7583394135        9.4236340775
O             7.7359972620        6.7013828411        9.4399537055
O            -3.8653315339        6.6948345056        9.4375976867
O            -9.6650923450       16.7402908187        9.4394975230
O             3.8816878270       13.4178911575        9.4154654807
O             9.6625418705        3.3545230067        9.4390068880
O            -1.9322468756        3.3474915808        9.4376982820
O            -7.7340556147       13.3936598238        9.4394632832
O            -0.0071464164        6.6758693747        9.4319526936
O             5.7703681764       16.7507406432        9.4328599100
O            -5.8012907448       16.7418309567        9.4372188460
O            11.5955915295        6.6941978436        9.4362829271
O             1.9185198901        9.9907379917        9.4112282554
O             7.7303552805        0.0032414984        9.4387911413
O            13.5285558406       10.0417273184        9.4390061768
O            19.3337660022        0.0032893831        9.4357355312
O             0.0018477672       -0.0004322820        9.4369576427
O             5.8097525698       10.0396513979        9.4273801315
O            -5.8007926969       10.0453299465        9.4391723251
O            11.5939986741        0.0061021156        9.4355120880
O             3.8665477310       -0.0017629420        9.4352136973
O             9.6635781487       10.0243333699        9.4294290262
O            -1.9469319255       10.0357520775        9.4262191367
O            15.4556505719        0.0110895856        9.4289043782
O             3.8689781919        6.6829070957        9.4310833037
O             9.6658282707       16.7386287985        9.4354741393
O            -1.9313806687       16.7408854683        9.4382162011
O            15.4641373785        6.6953105492        9.4370488842
O             5.8019975756        3.3499152627        9.4368462638
O            -0.0232761225       13.3985133838        9.4158247462
O            11.5997006659       13.3964366992        9.4332947855
O            17.3982964864        3.3479906543        9.4354558792
O             1.9312105770        3.3478761161        9.4346091994
O             7.7069255897       13.3742592518        9.4428955294
O            -3.8734722950       13.3897232581        9.4326862099
O            13.5285016120        3.3515374854        9.4331777382
Ce            1.9095060224       14.5113561485       10.1849158791
Ce            7.7346642527        4.4623895841       10.2473042625
Ce           13.5300273868       14.5091501319       10.2455776787
Ce           19.3274059863        4.4615513464       10.2480522538
Ce           -0.0084010914       17.8668014240       10.2413548096
Ce            5.8002204368        7.8001390539       10.2217058433
Ce           11.5980412801       17.8548949193       10.2463858219
Ce           17.3934912000        7.8125249934       10.2481350283
Ce            3.8523504270       17.8813753199       10.2368447875
Ce            9.6780143301        7.8068273705       10.2433192950
Ce           -1.9424805148        7.8006828045       10.2467566275
Ce           -7.7323217980       17.8562866378       10.2442917457
Ce            3.8402700910       11.1231480634       10.1735893776
Ce            9.6619100870        1.1218663002       10.2498106551
Ce           15.4634779736       11.1601773541       10.2497831046
Ce           21.2642550495        1.1146024813       10.2483447808
Ce            1.9195349912        7.7802467525       10.2270106642
Ce            7.7276984977       17.8658583654       10.2393095558
Ce           -3.8726708131       17.8584834990       10.2469054207
Ce           13.5344405545        7.8099304357       10.2474793586
Ce            5.7996592101        1.1122321819       10.2434758535
Ce           -0.0153413820       11.1349747703       10.2188273749
Ce           11.6059862009       11.1565310101       10.2398409621
Ce           17.3973233708        1.1221969913       10.2436055824
Ce           -0.0078752764        4.4519421172       10.2445252906
Ce            5.7796594149       14.5302626194       10.2281289968
Ce           -5.8067625622       14.5089254501       10.2459241390
Ce           11.6005702555        4.4652283452       10.2472194169
Ce            1.9317694825        1.1107765152       10.2424020048
Ce            7.7476614571       11.1462916594       10.2330010784
Ce           -3.8784144195       11.1590461681       10.2482906640
Ce           13.5284850103        1.1303724642       10.2439244611
Ce            3.8676118366        4.4515922571       10.2418108852
Ce            9.6644426929       14.5083560109       10.2364855846
Ce           -1.9410963342       14.5028048393       10.2409535025
Ce           15.4656209168        4.4654181334       10.2468040738
O             3.8801435309        8.9095241885       11.0281484804
O             9.6638784378       18.9748938438       11.0340232572
O            -1.9348386651       18.9786369575       11.0351792288
O            15.4596803726        8.9246534655       11.0373938242
O             1.9226198877       12.2330691725       10.9272584875
O             7.7333559698        2.2379421674       11.0395345039
O            13.5313764192       12.2728041895       11.0333990834
O            19.3296715487        2.2341599522       11.0398293538
O             5.7911267274       18.9863934059       11.0165878368
O            -0.0108255447        8.9140075693       11.0069726260
O            -5.7979799386       18.9743868982       11.0359499507
O            11.5923264206        8.9212169674       11.0365365652
O             3.8086023354       15.6323566850       11.0324854212
O             9.6631116700        5.5847950874       11.0457641412
O            -1.9351118024        5.5746233144       11.0410931717
O            -7.7319825519       15.6244724268       11.0360587164
O             1.9304616706       18.9799677926       11.0321679978
O             7.7106796738        8.9545766951       11.0583374749
O            -3.8736908491        8.9262871947       11.0348202774
O            -9.6647597495       18.9743724709       11.0367746549
O             5.7995413806        5.5897147307       11.0459603972
O             0.0256480575       15.6151489136       11.0501279592
O            11.5889877359       15.6172434817       11.0316791374
O            17.3933555478        5.5785149463       11.0369396193
O             5.7035481409       12.2434124761       11.0319991255
O             0.0000501467        2.2332014653       11.0361137886
O            -5.8016915763       12.2741033321       11.0360645575
O            11.5973555178        2.2410025171       11.0369323434
O             1.9388653507        5.5763588340       11.0431349878
O             7.7097714447       15.6323935525       10.9904254108
O            -3.8688060702       15.6216871079       11.0312658182
O            13.5300801375        5.5807771673       11.0349576303
O             3.8682496983        2.2323967531       11.0328119951
O             9.6671265263       12.2579925526       10.9912197214
O            -1.9319446636       12.2715221706       11.0195123257
O            15.4603249922        2.2412009945       11.0330403840
H             1.2040414155       12.9808345717       13.9263217473
N             2.1586720503       13.1488509710       13.5862642435
C             2.8774826255       14.3924772253       13.8880045337
N             4.2710668801       14.1708272504       13.4732650973
C             4.3882676630       12.8954221187       13.4266447517
C             5.6442003972       12.0966133250       13.4501671111
O             6.7839180004       12.5030389772       13.5676749798
N             5.3334910242       10.7140682442       13.5954956385
C             4.0927218981       10.1892549244       13.8085379144
N             3.9711336429        8.9330782619       14.1954834809
N             2.9255453764       10.8878228241       13.6794550808
C             3.0905952227       12.1770805866       13.5571680733
H             2.4578090546       15.2864270222       13.4084539972
H             6.1587575859       10.1514247892       13.8503918105
H             3.0501854010        8.5949771363       14.4755263904
H             4.7711441652        8.3126960832       14.3223135080
N             2.9529297625       14.4812319523       15.3195690895
C             3.0294483685       13.8212672907       16.3027126605
N             1.2054956819       10.2410598256       16.5170553945
C             1.8020747450       11.0886618135       17.0746273671
N             5.4594941355       10.8176135923       17.2118810986
C             4.5374162726       11.4520341469       17.5696720647
Fe            2.8733220787       12.5934141785       17.9941070740
C             1.1278695210       13.6341140864       18.1111414670
N             0.2200056965       14.3533118111       17.9219259556
C             4.0419902136       14.0870236418       18.7265885322
N             4.6684642514       15.0667979832       18.8990093652
C             2.6664310336       11.8950217327       19.8422513306
N             2.5342885504       11.5227937023       20.9449936336
K_POINTS gamma
CELL_PARAMETERS angstrom
     23.1964263916       0.0000000000       0.0000000000
    -11.5982158708      20.0886929877       0.0000000000
      0.0000000000       0.0000000000      30.0000000000
