&CONTROL
  calculation = 'scf'
  etot_conv_thr =   1.5000000000d-03
  forc_conv_thr =   1.0000000000d-04
  outdir = './out/'
  prefix = 'aiida'
  pseudo_dir = './pseudo/'
  tprnfor = .true.
  tstress = .true.
/
&SYSTEM
  degauss =   2.0000000000d-02
  ecutrho =   3.2000000000d+02
  ecutwfc =   4.0000000000d+01
  ibrav = 0
  nat = 245
  nosym = .false.
  ntyp = 6
  nbnd = 2500
  occupations = 'smearing'
  lda_plus_U = .true.
  Hubbard_U(2) = 5.0
  Hubbard_U(6) = 6.0
  smearing = 'mp'
  nspin = 2
  starting_magnetization(1) =   1.0000000000d-01
  starting_magnetization(2) =   4.1666666667d-01
  starting_magnetization(6) =   4.1666666667d-01
/
&ELECTRONS
  conv_thr =   4.2200000000d-06
  electron_maxstep = 300
  mixing_beta =   1.0000000000d-01
/
&IONS
/
ATOMIC_SPECIES
O      15.9994 O.pbe-n-kjpaw_psl.0.1.UPF
Ce     140.116 Ce.paw.z_12.atompaw.wentzcovitch.v1.2.upf
H      1.00794 H.pbe-rrkjus_psl.1.0.0.UPF
N      14.0067 N.pbe-n-radius_5.UPF
C      12.0107 C.pbe-n-kjpaw_psl.1.0.0.UPF
Fe     55.845 Fe.pbe-spn-kjpaw_psl.0.2.1.UPF
ATOMIC_POSITIONS (angstrom)
O             1.9330270702        5.5801969547        6.3132601995    0   0   0
O             1.9330311637       18.9726563517        6.3132601995    0   0   0
O             1.9330382755       12.2764209651        6.3132601995    0   0   0
O             3.8660652996       15.6245440452        6.3132601995    0   0   0
O             3.8660669066        2.2320747706        6.3132601995    0   0   0
O             3.8660720657        8.9283092572        6.3132601995    0   0   0
O             5.7990971567       18.9726563517        6.3132601995    0   0   0
O             5.7991056556       12.2764209651        6.3132601995    0   0   0
O             5.7991062016        5.5801969547        6.3132601995    0   0   0
O             7.7321312926       15.6245440452        6.3132601995    0   0   0
O             7.7321394435        8.9283092572        6.3132601995    0   0   0
O             7.7321460381        2.2320747706        6.3132601995    0   0   0
O             9.6651716509       12.2764209651        6.3132601995    0   0   0
O             9.6651735794        5.5801969547        6.3132601995    0   0   0
O             9.6651769793       18.9726563517        6.3132601995    0   0   0
O            -0.0000002972        2.2320747706        6.3132601995    0   0   0
O            -0.0000020806       15.6245440452        6.3132601995    0   0   0
O            -0.0000070657        8.9283092572        6.3132601995    0   0   0
O            -1.9330362165       18.9726563517        6.3132601995    0   0   0
O            -1.9330401360        5.5801969547        6.3132601995    0   0   0
O            -1.9330408537       12.2764209651        6.3132601995    0   0   0
O            -3.8660742695        8.9283092572        6.3132601995    0   0   0
O            -3.8660812097       15.6245440452        6.3132601995    0   0   0
O            -5.7991080598       12.2764209651        6.3132601995    0   0   0
O            -5.7991153456       18.9726563517        6.3132601995    0   0   0
O            -7.7321484158       15.6245440452        6.3132601995    0   0   0
O            -9.6651825517       18.9726563517        6.3132601995    0   0   0
O            11.5982054412        8.9283092572        6.3132601995    0   0   0
O            11.5982111152       15.6245440452        6.3132601995    0   0   0
O            11.5982134159        2.2320747706        6.3132601995    0   0   0
O            13.5312395747        5.5801969547        6.3132601995    0   0   0
O            13.5312514713       12.2764209651        6.3132601995    0   0   0
O            15.4642794135        2.2320747706        6.3132601995    0   0   0
O            15.4642852615        8.9283092572        6.3132601995    0   0   0
O            17.3973193951        5.5801969547        6.3132601995    0   0   0
O            19.3303592339        2.2320747706        6.3132601995    0   0   0
Ce            0.0000000000        0.0000000000        7.1024297940    0   0   0
Ce            0.0000037479       13.3924587984        7.1024297940    0   0   0
Ce            1.9330314597       16.7405806832        7.1024297940    0   0   0
Ce            1.9330330703        3.3481120052        7.1024297940    0   0   0
Ce            1.9330378826       10.0443464939        7.1024297940    0   0   0
Ce            3.8660670322        0.0000000000        7.1024297940    0   0   0
Ce            3.8660711257       13.3924587984        7.1024297940    0   0   0
Ce            3.8660720173        6.6962341893        7.1024297940    0   0   0
Ce            5.7990988375       16.7405806832        7.1024297940    0   0   0
Ce            5.7991052604       10.0443464939        7.1024297940    0   0   0
Ce            5.7991118561        3.3481120052        7.1024297940    0   0   0
Ce            7.7321385035       13.3924587984        7.1024297940    0   0   0
Ce            7.7321393951        6.6962341893        7.1024297940    0   0   0
Ce            7.7321458180        0.0000000000        7.1024297940    0   0   0
Ce            9.6651726382       10.0443464939        7.1024297940    0   0   0
Ce            9.6651772777       16.7405806832        7.1024297940    0   0   0
Ce            9.6651792339        3.3481120052        7.1024297940    0   0   0
Ce           -0.0000067685        6.6962341893        7.1024297940    0   0   0
Ce           -1.9330339619        3.3481120052        7.1024297940    0   0   0
Ce           -1.9330359181       16.7405806832        7.1024297940    0   0   0
Ce           -1.9330409032       10.0443464939        7.1024297940    0   0   0
Ce           -3.8660738007        6.6962341893        7.1024297940    0   0   0
Ce           -3.8660750380       13.3924587984        7.1024297940    0   0   0
Ce           -5.7991079354       10.0443464939        7.1024297940    0   0   0
Ce           -5.7991147039       16.7405806832        7.1024297940    0   0   0
Ce           -7.7321420701       13.3924587984        7.1024297940    0   0   0
Ce           11.5982067729        6.6962341893        7.1024297940    0   0   0
Ce           11.5982131958        0.0000000000        7.1024297940    0   0   0
Ce           11.5982169437       13.3924587984        7.1024297940    0   0   0
Ce           13.5312446555       16.7405806832        7.1024297940    0   0   0
Ce           13.5312466117        3.3481120052        7.1024297940    0   0   0
Ce           13.5312510784       10.0443464939        7.1024297940    0   0   0
Ce           15.4642805736        0.0000000000        7.1024297940    0   0   0
Ce           15.4642852131        6.6962341893        7.1024297940    0   0   0
Ce           17.3973250519        3.3481120052        7.1024297940    0   0   0
Ce           19.3303590138        0.0000000000        7.1024297940    0   0   0
O             0.0000040439       11.1603843271        7.8916000590    0   0   0
O             1.9330334545        1.1160373853        7.8916000590    0   0   0
O             1.9330379794       14.5084954364        7.8916000590    0   0   0
O             1.9330381787        7.8122720226        7.8916000590    0   0   0
O             3.8660643099       17.8566185164        7.8916000590    0   0   0
O             3.8660714240       11.1603843271        7.8916000590    0   0   0
O             3.8660781902        4.4641495391        7.8916000590    0   0   0
O             5.7991046660       14.5084954364        7.8916000590    0   0   0
O             5.7991055588        7.8122720226        7.8916000590    0   0   0
O             5.7991122380        1.1160373853        7.8916000590    0   0   0
O             7.7321381106       11.1603843271        7.8916000590    0   0   0
O             7.7321441303       17.8566185164        7.8916000590    0   0   0
O             7.7321455703        4.4641495391        7.8916000590    0   0   0
O             9.6651722453        7.8122720226        7.8916000590    0   0   0
O             9.6651796158        1.1160373853        7.8916000590    0   0   0
O             9.6651844886       14.5084954364        7.8916000590    0   0   0
O            -0.0000005933        4.4641495391        7.8916000590    0   0   0
O            -0.0000023766       17.8566185164        7.8916000590    0   0   0
O            -1.9330293984       14.5084954364        7.8916000590    0   0   0
O            -1.9330406048        7.8122720226        7.8916000590    0   0   0
O            -3.8660697567       17.8566185164        7.8916000590    0   0   0
O            -3.8660747396       11.1603843271        7.8916000590    0   0   0
O            -5.7991081842       14.5084954364        7.8916000590    0   0   0
O            -7.7321485402       17.8566185164        7.8916000590    0   0   0
O            11.5982115104       17.8566185164        7.8916000590    0   0   0
O            11.5982122569        4.4641495391        7.8916000590    0   0   0
O            11.5982179310       11.1603843271        7.8916000590    0   0   0
O            13.5312463046        1.1160373853        7.8916000590    0   0   0
O            13.5312518665       14.5084954364        7.8916000590    0   0   0
O            13.5312520657        7.8122720226        7.8916000590    0   0   0
O            15.4642853111       11.1603843271        7.8916000590    0   0   0
O            15.4642920796        4.4641495391        7.8916000590    0   0   0
O            17.3973194458        7.8122720226        7.8916000590    0   0   0
O            17.3973261250        1.1160373853        7.8916000590    0   0   0
O            19.3303594574        4.4641495391        7.8916000590    0   0   0
O            21.2633935028        1.1160373853        7.8916000590    0   0   0
O             1.9335338075       16.7493581340        9.4294821711
O             7.7343965980        6.7043468408        9.4398937643
O            -3.8652747603        6.6929039797        9.4384293766
O            -9.6665907882       16.7417030939        9.4379084150
O             3.8665445310       13.4093886707        9.4250500670
O             9.6615808201        3.3511590282        9.4395500888
O            -1.9302892151        3.3468576714        9.4357345271
O            -7.7358789394       13.3965701852        9.4359934883
O            -0.0008711807        6.6877394672        9.4365645290
O             5.7727651919       16.7345166753        9.4466050134
O            -5.8019893194       16.7429614620        9.4369399334
O            11.5940500168        6.6925510249        9.4355995262
O             1.9350773812       10.0312633987        9.4339479362
O             7.7316382571        0.0019237835        9.4384329062
O            13.5290201337       10.0434122188        9.4371638195
O            19.3327756589        0.0005561313        9.4342860494
O             0.0019585840       -0.0003570518        9.4350707806
O             5.8054554542       10.0544159406        9.4316127685
O            -5.8053992432       10.0476844200        9.4400071315
O            11.5958526258        0.0037463417        9.4388392108
O             3.8666528766        0.0007434128        9.4372041631
O             9.6570637733       10.0326975634        9.4379623666
O            -1.9404574596       10.0427821708        9.4333199095
O            15.4585985137        0.0028238219        9.4366632756
O             3.8631545726        6.6962307036        9.4325583087
O             9.6684398370       16.7404836019        9.4337124569
O            -1.9285139048       16.7390087851        9.4387569640
O            15.4628227597        6.6947589675        9.4358604078
O             5.8002045972        3.3553817613        9.4388195461
O            -0.0144805100       13.3999606863        9.4232238777
O            11.5987465768       13.3931202513        9.4336891172
O            17.3997033508        3.3442823960        9.4355854698
O             1.9322999213        3.3487524118        9.4374572898
O             7.7023401710       13.3726318506        9.4526492791
O            -3.8713743074       13.3933103458        9.4386942743
O            13.5293035199        3.3460542484        9.4341150264
Ce            1.9143087997       14.5148288673       10.2135732227
Ce            7.7336610932        4.4637290579       10.2448402011
Ce           13.5300520246       14.5100154803       10.2455114219
Ce           19.3289771618        4.4618373417       10.2480790086
Ce           -0.0058565514       17.8653907432       10.2413102113
Ce            5.7968015189        7.8084677478       10.2371361581
Ce           11.5973424747       17.8560533206       10.2436488763
Ce           17.3935197744        7.8108117783       10.2489229247
Ce            3.8562136843       17.8697915850       10.2455165501
Ce            9.6713795809        7.8065924772       10.2470419763
Ce           -1.9394112427        7.8065563450       10.2448985557
Ce           -7.7329997708       17.8588165237       10.2481093794
Ce            3.8458945817       11.1478462468       10.2111846230
Ce            9.6610195802        1.1212617791       10.2459322467
Ce           15.4612444747       11.1590002449       10.2476544947
Ce           21.2644771718        1.1177551284       10.2469097897
Ce            1.9266807072        7.7984551157       10.2404098720
Ce            7.7343101653       17.8620064697       10.2431627074
Ce           -3.8687211500       17.8587592431       10.2466914004
Ce           13.5327472386        7.8088848493       10.2488079951
Ce            5.7974065265        1.1164011997       10.2451252700
Ce           -0.0179495858       11.1556807338       10.2343950243
Ce           11.6047652254       11.1586141952       10.2445387130
Ce           17.3988742046        1.1194546237       10.2448945226
Ce           -0.0042431352        4.4597691746       10.2441680117
Ce            5.7872364722       14.5236273804       10.2429938006
Ce           -5.8037846429       14.5090902923       10.2445179336
Ce           11.6019002443        4.4633698972       10.2460681921
Ce            1.9331198416        1.1127593832       10.2445910454
Ce            7.7435384705       11.1497527155       10.2436266103
Ce           -3.8773767149       11.1557778591       10.2450802557
Ce           13.5317671001        1.1239149792       10.2428708019
Ce            3.8646246522        4.4614730023       10.2432533758
Ce            9.6641957188       14.5065186457       10.2452351755
Ce           -1.9459992668       14.5084676541       10.2404226928
Ce           15.4666692461        4.4634234562       10.2501317378
O             3.8855039880        8.9134262918       11.0503590354
O             9.6605440451       18.9706549585       11.0329608797
O            -1.9348758754       18.9734961823       11.0374998892
O            15.4617630590        8.9251836987       11.0392089939
O             1.9066540196       12.2719211394       11.0078550201
O             7.7323071059        2.2367354151       11.0394294952
O            13.5255021639       12.2668848761       11.0318545869
O            19.3274083546        2.2293579794       11.0391371780
O             5.7947400464       18.9749830044       11.0282173802
O            -0.0018466228        8.9185458759       11.0223618634
O            -5.7992252288       18.9751262463       11.0400820748
O            11.5949150356        8.9208072020       11.0366074992
O             3.8234720358       15.6106186371       11.0870798808
O             9.6642016133        5.5859753703       11.0426088253
O            -1.9379923007        5.5746705409       11.0401458443
O            -7.7355437620       15.6251964778       11.0369801878
O             1.9334743593       18.9705223771       11.0385907669
O             7.7152935393        8.9457572590       11.0695376977
O            -3.8742245212        8.9263565535       11.0353627144
O            -9.6666854392       18.9737675002       11.0372901686
O             5.7986476636        5.5897923910       11.0454401146
O             0.0164610137       15.6135901558       11.0518656858
O            11.5833732778       15.6143806174       11.0305487446
O            17.3939126129        5.5768086736       11.0398618222
O             5.7056793019       12.2657238472       11.0832370302
O             0.0004061083        2.2308822720       11.0384889178
O            -5.8048080983       12.2718877697       11.0367545118
O            11.6012302656        2.2371034333       11.0382333783
O             1.9398850093        5.5859693898       11.0421399569
O             7.7181299314       15.6242469662       11.0138829272
O            -3.8624615401       15.6241684444       11.0347148663
O            13.5323797722        5.5812438019       11.0394280868
O             3.8699022361        2.2361232199       11.0377401466
O             9.6638956387       12.2683304628       11.0130338575
O            -1.9311497070       12.2757229436       11.0308690770
O            15.4637436614        2.2378400713       11.0361061428
H             1.4624828611       13.0484166545       13.8763955925
N             2.4733482173       13.1870692521       13.7601422247
C             3.1740540463       14.4081735732       14.1601176836
N             4.6134477991       14.1053136137       14.0973068950
C             4.6908729695       12.8424985385       13.8592487375
C             5.9023264915       11.9688909983       13.8473260624
O             7.0647684983       12.3168269992       13.8871058408
N             5.5190220677       10.6003174285       13.8823789540
C             4.2315069157       10.1529685550       14.0022324745
N             3.9808192127        8.9222783316       14.4292497879
N             3.1365641570       10.9033534212       13.7093183191
C             3.3636732599       12.1890918599       13.7321600427
H             2.9282604301       15.2715654510       13.5196886852
H             6.2907004474        9.9679104689       14.1153131448
H             2.9947579449        8.7191042978       14.6248453390
H             4.6858486899        8.3657081918       14.9198204786
N             2.8678978993       14.6192916280       15.5495851300
C             2.8144577324       14.1220327512       16.6171350675
N             1.5123924133       10.5125770824       16.3207362187
C             1.8888718840       11.3555542577       17.0495067293
N             5.1024322776       11.1507691124       16.7095096995
C             4.3230725392       11.7692790138       17.3409836959
Fe            2.7706146061       12.8126749856       18.2339974880
C             0.9176939085       13.6396356436       18.4371826311
N            -0.0917448955       14.2150241895       18.2609603268
C             4.1196703607       14.1314826892       19.0372251880
N             4.8730688574       15.0059589926       19.2596467169
C             2.6253819433       11.8391949349       19.9830923193
N             2.5371990555       11.2428066182       20.9922997300
K_POINTS gamma
CELL_PARAMETERS angstrom
     23.1964263916       0.0000000000       0.0000000000
    -11.5982158708      20.0886929877       0.0000000000
      0.0000000000       0.0000000000      30.0000000000
