&CONTROL
  calculation = 'scf'
  etot_conv_thr =   1.5000000000d-03
  forc_conv_thr =   1.0000000000d-04
  outdir = './out/'
  prefix = 'aiida'
  pseudo_dir = './pseudo/'
  tprnfor = .true.
  tstress = .true.
/
&SYSTEM
  degauss =   2.0000000000d-02
  ecutrho =   3.2000000000d+02
  ecutwfc =   4.0000000000d+01
  ibrav = 0
  nat = 258
  nosym = .false.
  ntyp = 6
  nbnd = 2500
  occupations = 'smearing'
  lda_plus_U = .true.
  Hubbard_U(2) = 5.0
  Hubbard_U(6) = 6.0
  smearing = 'mp'
  nspin = 2
  starting_magnetization(1) =   1.0000000000d-01
  starting_magnetization(2) =   4.1666666667d-01
  starting_magnetization(6) =   4.1666666667d-01
/
&ELECTRONS
  conv_thr =   4.2200000000d-08
  electron_maxstep = 300
  mixing_beta =   1.0000000000d-01
/
&IONS
/
ATOMIC_SPECIES
O      15.9994 O.pbe-n-kjpaw_psl.0.1.UPF
Ce     140.116 Ce.paw.z_12.atompaw.wentzcovitch.v1.2.upf
H      1.00794 H.pbe-rrkjus_psl.1.0.0.UPF
N      14.0067 N.pbe-n-radius_5.UPF
C      12.0107 C.pbe-n-kjpaw_psl.1.0.0.UPF
Fe     55.845 Fe.pbe-spn-kjpaw_psl.0.2.1.UPF
ATOMIC_POSITIONS (angstrom)
O             1.9330270702        5.5801969547        6.3132601995    0   0   0
O             1.9330311637       18.9726563517        6.3132601995    0   0   0
O             1.9330382755       12.2764209651        6.3132601995    0   0   0
O             3.8660652996       15.6245440452        6.3132601995    0   0   0
O             3.8660669066        2.2320747706        6.3132601995    0   0   0
O             3.8660720657        8.9283092572        6.3132601995    0   0   0
O             5.7990971567       18.9726563517        6.3132601995    0   0   0
O             5.7991056556       12.2764209651        6.3132601995    0   0   0
O             5.7991062016        5.5801969547        6.3132601995    0   0   0
O             7.7321312926       15.6245440452        6.3132601995    0   0   0
O             7.7321394435        8.9283092572        6.3132601995    0   0   0
O             7.7321460381        2.2320747706        6.3132601995    0   0   0
O             9.6651716509       12.2764209651        6.3132601995    0   0   0
O             9.6651735794        5.5801969547        6.3132601995    0   0   0
O             9.6651769793       18.9726563517        6.3132601995    0   0   0
O            -0.0000002972        2.2320747706        6.3132601995    0   0   0
O            -0.0000020806       15.6245440452        6.3132601995    0   0   0
O            -0.0000070657        8.9283092572        6.3132601995    0   0   0
O            -1.9330362165       18.9726563517        6.3132601995    0   0   0
O            -1.9330401360        5.5801969547        6.3132601995    0   0   0
O            -1.9330408537       12.2764209651        6.3132601995    0   0   0
O            -3.8660742695        8.9283092572        6.3132601995    0   0   0
O            -3.8660812097       15.6245440452        6.3132601995    0   0   0
O            -5.7991080598       12.2764209651        6.3132601995    0   0   0
O            -5.7991153456       18.9726563517        6.3132601995    0   0   0
O            -7.7321484158       15.6245440452        6.3132601995    0   0   0
O            -9.6651825517       18.9726563517        6.3132601995    0   0   0
O            11.5982054412        8.9283092572        6.3132601995    0   0   0
O            11.5982111152       15.6245440452        6.3132601995    0   0   0
O            11.5982134159        2.2320747706        6.3132601995    0   0   0
O            13.5312395747        5.5801969547        6.3132601995    0   0   0
O            13.5312514713       12.2764209651        6.3132601995    0   0   0
O            15.4642794135        2.2320747706        6.3132601995    0   0   0
O            15.4642852615        8.9283092572        6.3132601995    0   0   0
O            17.3973193951        5.5801969547        6.3132601995    0   0   0
O            19.3303592339        2.2320747706        6.3132601995    0   0   0
Ce            0.0000000000        0.0000000000        7.1024297940    0   0   0
Ce            0.0000037479       13.3924587984        7.1024297940    0   0   0
Ce            1.9330314597       16.7405806832        7.1024297940    0   0   0
Ce            1.9330330703        3.3481120052        7.1024297940    0   0   0
Ce            1.9330378826       10.0443464939        7.1024297940    0   0   0
Ce            3.8660670322        0.0000000000        7.1024297940    0   0   0
Ce            3.8660711257       13.3924587984        7.1024297940    0   0   0
Ce            3.8660720173        6.6962341893        7.1024297940    0   0   0
Ce            5.7990988375       16.7405806832        7.1024297940    0   0   0
Ce            5.7991052604       10.0443464939        7.1024297940    0   0   0
Ce            5.7991118561        3.3481120052        7.1024297940    0   0   0
Ce            7.7321385035       13.3924587984        7.1024297940    0   0   0
Ce            7.7321393951        6.6962341893        7.1024297940    0   0   0
Ce            7.7321458180        0.0000000000        7.1024297940    0   0   0
Ce            9.6651726382       10.0443464939        7.1024297940    0   0   0
Ce            9.6651772777       16.7405806832        7.1024297940    0   0   0
Ce            9.6651792339        3.3481120052        7.1024297940    0   0   0
Ce           -0.0000067685        6.6962341893        7.1024297940    0   0   0
Ce           -1.9330339619        3.3481120052        7.1024297940    0   0   0
Ce           -1.9330359181       16.7405806832        7.1024297940    0   0   0
Ce           -1.9330409032       10.0443464939        7.1024297940    0   0   0
Ce           -3.8660738007        6.6962341893        7.1024297940    0   0   0
Ce           -3.8660750380       13.3924587984        7.1024297940    0   0   0
Ce           -5.7991079354       10.0443464939        7.1024297940    0   0   0
Ce           -5.7991147039       16.7405806832        7.1024297940    0   0   0
Ce           -7.7321420701       13.3924587984        7.1024297940    0   0   0
Ce           11.5982067729        6.6962341893        7.1024297940    0   0   0
Ce           11.5982131958        0.0000000000        7.1024297940    0   0   0
Ce           11.5982169437       13.3924587984        7.1024297940    0   0   0
Ce           13.5312446555       16.7405806832        7.1024297940    0   0   0
Ce           13.5312466117        3.3481120052        7.1024297940    0   0   0
Ce           13.5312510784       10.0443464939        7.1024297940    0   0   0
Ce           15.4642805736        0.0000000000        7.1024297940    0   0   0
Ce           15.4642852131        6.6962341893        7.1024297940    0   0   0
Ce           17.3973250519        3.3481120052        7.1024297940    0   0   0
Ce           19.3303590138        0.0000000000        7.1024297940    0   0   0
O             0.0000040439       11.1603843271        7.8916000590    0   0   0
O             1.9330334545        1.1160373853        7.8916000590    0   0   0
O             1.9330379794       14.5084954364        7.8916000590    0   0   0
O             1.9330381787        7.8122720226        7.8916000590    0   0   0
O             3.8660643099       17.8566185164        7.8916000590    0   0   0
O             3.8660714240       11.1603843271        7.8916000590    0   0   0
O             3.8660781902        4.4641495391        7.8916000590    0   0   0
O             5.7991046660       14.5084954364        7.8916000590    0   0   0
O             5.7991055588        7.8122720226        7.8916000590    0   0   0
O             5.7991122380        1.1160373853        7.8916000590    0   0   0
O             7.7321381106       11.1603843271        7.8916000590    0   0   0
O             7.7321441303       17.8566185164        7.8916000590    0   0   0
O             7.7321455703        4.4641495391        7.8916000590    0   0   0
O             9.6651722453        7.8122720226        7.8916000590    0   0   0
O             9.6651796158        1.1160373853        7.8916000590    0   0   0
O             9.6651844886       14.5084954364        7.8916000590    0   0   0
O            -0.0000005933        4.4641495391        7.8916000590    0   0   0
O            -0.0000023766       17.8566185164        7.8916000590    0   0   0
O            -1.9330293984       14.5084954364        7.8916000590    0   0   0
O            -1.9330406048        7.8122720226        7.8916000590    0   0   0
O            -3.8660697567       17.8566185164        7.8916000590    0   0   0
O            -3.8660747396       11.1603843271        7.8916000590    0   0   0
O            -5.7991081842       14.5084954364        7.8916000590    0   0   0
O            -7.7321485402       17.8566185164        7.8916000590    0   0   0
O            11.5982115104       17.8566185164        7.8916000590    0   0   0
O            11.5982122569        4.4641495391        7.8916000590    0   0   0
O            11.5982179310       11.1603843271        7.8916000590    0   0   0
O            13.5312463046        1.1160373853        7.8916000590    0   0   0
O            13.5312518665       14.5084954364        7.8916000590    0   0   0
O            13.5312520657        7.8122720226        7.8916000590    0   0   0
O            15.4642853111       11.1603843271        7.8916000590    0   0   0
O            15.4642920796        4.4641495391        7.8916000590    0   0   0
O            17.3973194458        7.8122720226        7.8916000590    0   0   0
O            17.3973261250        1.1160373853        7.8916000590    0   0   0
O            19.3303594574        4.4641495391        7.8916000590    0   0   0
O            21.2633935028        1.1160373853        7.8916000590    0   0   0
O             1.9393094119       16.7361075049        9.4294377560
O             7.7480973943        6.7041061706        9.4315411654
O            -3.8644027216        6.6948968398        9.4285133847
O            -9.6721351282       16.7313864289        9.4263538124
O             3.8611749411       13.4134692503        9.4046664367
O             9.6689425485        3.3618162785        9.4216006954
O            -1.9369442489        3.3501190344        9.4196890635
O            -7.7425686985       13.3856444583        9.4254571615
O             0.0053136332        6.7006727117        9.4256241981
O             5.7904559964       16.7230002053        9.4315294197
O            -5.7989925812       16.7365122899        9.4260843265
O            11.5742770638        6.7000484516        9.4300939735
O             1.9360424200       10.0235830054        9.4198016719
O             7.7363855938        0.0069339933        9.4319860618
O            13.5420869553       10.0478073852        9.4125939655
O            19.3262296532       -0.0071650692        9.4272487990
O            -0.0052602004       -0.0072961442        9.4273964347
O             5.7980065203       10.0385201456        9.4261904003
O            -5.8086083693       10.0391164898        9.4282480035
O            11.6087041272        0.0029529080        9.4312741938
O             3.8668288731        0.0043096988        9.4282794035
O             9.6584133873       10.0392633140        9.4239288314
O            -1.9226198265       10.0460078260        9.4299458497
O            15.4598843779       -0.0092130284        9.4300977305
O             3.8824837793        6.7034854139        9.4272475435
O             9.6675211336       16.7293365242        9.4263523431
O            -1.9236502659       16.7385543371        9.4282719272
O            15.4588523032        6.6967037325        9.4271118235
O             5.7994526569        3.3565338413        9.4235366834
O            -0.0137359396       13.3980066167        9.4158295818
O            11.5939862363       13.3950536699        9.4222072721
O            17.3977166534        3.3490896110        9.4241386485
O             1.9383491658        3.3617326341        9.4251845800
O             7.7349013752       13.3643165944        9.4429588952
O            -3.8621048546       13.3846952956        9.4285099849
O            13.5292866357        3.3573979917        9.4284162176
Ce            1.9253733234       14.5086354835       10.2056180078
Ce            7.7320701597        4.4575753997       10.2312915644
Ce           13.5280988303       14.5071038673       10.2350558385
Ce           19.3262194592        4.4614831384       10.2220659183
Ce           -0.0006754271       17.8573769554       10.2356062216
Ce            5.8032371559        7.8120522580       10.2385982948
Ce           11.5905025089       17.8460382460       10.2308221254
Ce           17.4027165224        7.8105800996       10.2285966937
Ce            3.8685372101       17.8540111226       10.2364041408
Ce            9.6697763094        7.8222520874       10.2224203814
Ce           -1.9280983991        7.8122473687       10.2321850254
Ce           -7.7334014971       17.8567675743       10.2314915821
Ce            3.8523622532       11.1480511315       10.1898817314
Ce            9.6685073801        1.1201318996       10.2311653814
Ce           15.4619915972       11.1588189080       10.2318843479
Ce           21.2581077015        1.1167949761       10.2292712333
Ce            1.9346238649        7.8052187500       10.2321754655
Ce            7.7384838597       17.8368816141       10.2462193265
Ce           -3.8627457429       17.8545241769       10.2298511735
Ce           13.5364628788        7.8144403125       10.2345761535
Ce            5.7980325221        1.1155945071       10.2285035537
Ce           -0.0023070290       11.1489074114       10.2201253169
Ce           11.6129072409       11.1649394545       10.2186311896
Ce           17.4017529732        1.1045973880       10.2279906592
Ce            0.0027599917        4.4634162522       10.2313569008
Ce            5.7916190966       14.5007492664       10.2350676468
Ce           -5.8009064305       14.5049898871       10.2306341356
Ce           11.6023826671        4.4695735430       10.2324299823
Ce            1.9289201635        1.1153063407       10.2302635266
Ce            7.7253259406       11.1560430606       10.2140503717
Ce           -3.8651975522       11.1603569302       10.2391190660
Ce           13.5373983662        1.1135075173       10.2291938338
Ce            3.8702610320        4.4713989036       10.2381323215
Ce            9.6605434749       14.5028330321       10.2457168177
Ce           -1.9346128360       14.5034579648       10.2350511044
Ce           15.4626399795        4.4673610065       10.2330284251
O             3.8799269378        8.9478317843       11.0212927953
O             9.6556458571       18.9622701622       11.0146781506
O            -1.9257245080       18.9724264545       11.0158607481
O            15.4523044539        8.9292532264       11.0205596412
O             1.9279673145       12.2585667223       10.9591714979
O             7.7375150512        2.2449658306       11.0206124044
O            13.5195097363       12.2676753858       11.0262098197
O            19.3281612996        2.2263977666       11.0043603870
O             5.7931444003       18.9490610582       11.0199145103
O             0.0228921494        8.9395302159       11.0128233047
O            -5.7924972365       18.9742201398       11.0103141931
O            11.6280685961        8.9357697831       11.0257831601
O             3.8485618421       15.5862487599       11.0577385967
O             9.6628168491        5.5955218621       11.0665637701
O            -1.9261268388        5.5830255214       11.0033053993
O            -7.7375110335       15.6164293037       11.0113915801
O             1.9448650685       18.9478834695       11.0291813816
O             7.7409136575        8.9492320448       11.0084912203
O            -3.8650581795        8.9296195453       11.0066832491
O            -9.6712705786       18.9627836185       11.0090974135
O             5.8130681131        5.5900083734       11.0133142981
O             0.0173883467       15.6158569330       11.0466625111
O            11.5879391286       15.6073573131       11.0193533423
O            17.3911907297        5.5830656622       11.0122247407
O             5.7298642212       12.2803294837       11.0105322025
O             0.0009124976        2.2317126032       11.0081908439
O            -5.8028455620       12.2725548043       11.0119984473
O            11.5968817913        2.2376460778       11.0171128339
O             1.9468688591        5.5939071918       11.0246629313
O             7.7451688179       15.6205519524       11.0290063811
O            -3.8607480911       15.6263262164       11.0126311296
O            13.5162074826        5.5886023469       11.0398693140
O             3.8764672990        2.2430852571       11.0131370141
O             9.7000251989       12.2477483188       11.0759432788
O            -1.9122936943       12.2828544900       11.0374393660
O            15.4582995578        2.2256993946       11.0130139979
H             1.2167741512       12.8967781888       14.0228959557
N             2.1811765805       13.1120584194       13.7491462332
C             2.8566053656       14.3725913603       14.0593542050
N             4.2925266270       14.1595735922       13.8025481052
C             4.4112400725       12.8799249037       13.7352634975
C             5.6499301189       12.0864143041       13.7069989535
O             6.7687099730       12.6018095685       13.6948311849
N             5.4245968829       10.7302700472       13.7613848539
C             4.1717048881       10.1799327282       13.9183844665
N             4.0824427270        8.9028378819       14.2405796245
N             2.9947573616       10.8647250927       13.7708299358
C             3.1336872211       12.1592569198       13.7512851831
H             2.4665785485       15.2463831000       13.5305264874
H             6.3288602920       10.1202849437       13.9256699844
H             3.1468325166        8.5361940759       14.4131463294
H             4.9357232656        8.2760453225       14.2711276432
H             8.3419522277        6.0808997551       13.8157798603
N             8.5335562527        7.0712978181       13.8812190081
C             7.4455551876        7.9241119620       14.0177314676
O             6.2940975864        7.4073944696       14.0383297861
N             7.6629031830        9.2546498284       14.0678761901
C             8.8844518793        9.7536450754       13.8176014229
N             9.0274178672       11.0760547262       13.7155219466
C            10.0090109241        8.8926159726       13.6525307047
C             9.7924970813        7.5564108136       13.7030104328
H            10.5756960505        6.8145001935       13.5706661270
H            10.9987383635        9.2984544226       13.4931788740
H             8.1849186102       11.6797894338       13.7948589611
H             9.8140737881       11.4672932839       13.1900369252
N             2.7462972018       14.5654654210       15.4846698825
C             2.8487142301       13.9944358691       16.5143868436
N             1.3666448602       10.3713261227       16.4178515453
C             1.8514221992       11.2193948090       17.0719059819
N             5.3058268146       10.9487384970       17.0108721585
C             4.4590266438       11.6109887448       17.4823822721
Fe            2.8264251337       12.7240000774       18.1423185017
C             1.0082063957       13.6952841410       18.1987465554
N             0.0178020019       14.3150145194       18.0264754704
C             4.1112869196       14.1857518296       18.8123063961
N             4.8049915438       15.1008083208       19.0694790945
C             2.6487538620       11.8653259658       19.9298435577
N             2.5323965475       11.3849389985       20.9948120744
K_POINTS gamma
CELL_PARAMETERS angstrom
     23.1964263916       0.0000000000       0.0000000000
    -11.5982158708      20.0886929877       0.0000000000
      0.0000000000       0.0000000000      30.0000000000
