&CONTROL
  calculation = 'relax'
  etot_conv_thr =   1.5000000000d-03
  forc_conv_thr =   1.0000000000d-04
  outdir = './out/'
  prefix = 'aiida'
  pseudo_dir = './pseudo/'
  tprnfor = .true.
  tstress = .true.
/
&SYSTEM
  degauss =   2.0000000000d-02
  ecutrho =   2.4000000000d+02
  ecutwfc =   3.0000000000d+01
  ibrav = 0
  nat = 258
  nosym = .false.
  ntyp = 6
  occupations = 'smearing'
  lda_plus_U = .true.
  Hubbard_U(2) = 5.0
  Hubbard_U(6) = 5.0
  smearing = 'mp'
  nspin = 2
  starting_magnetization(1) =   1.0000000000d-01
  starting_magnetization(2) =   4.1666666667d-01
  starting_magnetization(6) =   4.1666666667d-01
/
&ELECTRONS
  scf_must_converge = .false.
  conv_thr =   4.2200000000d-08
  electron_maxstep = 80
  mixing_beta =   1.0000000000d-01
/
&IONS
/
ATOMIC_SPECIES
O      15.9994 O.pbe-n-kjpaw_psl.0.1.UPF
Ce     140.116 Ce.paw.z_12.atompaw.wentzcovitch.v1.2.upf
H      1.00794 H.pbe-rrkjus_psl.1.0.0.UPF
N      14.0067 N.pbe-n-radius_5.UPF
C      12.0107 C.pbe-n-kjpaw_psl.1.0.0.UPF
Fe     55.845 Fe.pbe-spn-kjpaw_psl.0.2.1.UPF
ATOMIC_POSITIONS (angstrom)
O             1.9330270702        5.5801969547        6.3132601995    0   0   0
O             1.9330311637       18.9726563517        6.3132601995    0   0   0
O             1.9330382755       12.2764209651        6.3132601995    0   0   0
O             3.8660652996       15.6245440452        6.3132601995    0   0   0
O             3.8660669066        2.2320747706        6.3132601995    0   0   0
O             3.8660720657        8.9283092572        6.3132601995    0   0   0
O             5.7990971567       18.9726563517        6.3132601995    0   0   0
O             5.7991056556       12.2764209651        6.3132601995    0   0   0
O             5.7991062016        5.5801969547        6.3132601995    0   0   0
O             7.7321312926       15.6245440452        6.3132601995    0   0   0
O             7.7321394435        8.9283092572        6.3132601995    0   0   0
O             7.7321460381        2.2320747706        6.3132601995    0   0   0
O             9.6651716509       12.2764209651        6.3132601995    0   0   0
O             9.6651735794        5.5801969547        6.3132601995    0   0   0
O             9.6651769793       18.9726563517        6.3132601995    0   0   0
O            -0.0000002972        2.2320747706        6.3132601995    0   0   0
O            -0.0000020806       15.6245440452        6.3132601995    0   0   0
O            -0.0000070657        8.9283092572        6.3132601995    0   0   0
O            -1.9330362165       18.9726563517        6.3132601995    0   0   0
O            -1.9330401360        5.5801969547        6.3132601995    0   0   0
O            -1.9330408537       12.2764209651        6.3132601995    0   0   0
O            -3.8660742695        8.9283092572        6.3132601995    0   0   0
O            -3.8660812097       15.6245440452        6.3132601995    0   0   0
O            -5.7991080598       12.2764209651        6.3132601995    0   0   0
O            -5.7991153456       18.9726563517        6.3132601995    0   0   0
O            -7.7321484158       15.6245440452        6.3132601995    0   0   0
O            -9.6651825517       18.9726563517        6.3132601995    0   0   0
O            11.5982054412        8.9283092572        6.3132601995    0   0   0
O            11.5982111152       15.6245440452        6.3132601995    0   0   0
O            11.5982134159        2.2320747706        6.3132601995    0   0   0
O            13.5312395747        5.5801969547        6.3132601995    0   0   0
O            13.5312514713       12.2764209651        6.3132601995    0   0   0
O            15.4642794135        2.2320747706        6.3132601995    0   0   0
O            15.4642852615        8.9283092572        6.3132601995    0   0   0
O            17.3973193951        5.5801969547        6.3132601995    0   0   0
O            19.3303592339        2.2320747706        6.3132601995    0   0   0
Ce            0.0000000000        0.0000000000        7.1024297940    0   0   0
Ce            0.0000037479       13.3924587984        7.1024297940    0   0   0
Ce            1.9330314597       16.7405806832        7.1024297940    0   0   0
Ce            1.9330330703        3.3481120052        7.1024297940    0   0   0
Ce            1.9330378826       10.0443464939        7.1024297940    0   0   0
Ce            3.8660670322        0.0000000000        7.1024297940    0   0   0
Ce            3.8660711257       13.3924587984        7.1024297940    0   0   0
Ce            3.8660720173        6.6962341893        7.1024297940    0   0   0
Ce            5.7990988375       16.7405806832        7.1024297940    0   0   0
Ce            5.7991052604       10.0443464939        7.1024297940    0   0   0
Ce            5.7991118561        3.3481120052        7.1024297940    0   0   0
Ce            7.7321385035       13.3924587984        7.1024297940    0   0   0
Ce            7.7321393951        6.6962341893        7.1024297940    0   0   0
Ce            7.7321458180        0.0000000000        7.1024297940    0   0   0
Ce            9.6651726382       10.0443464939        7.1024297940    0   0   0
Ce            9.6651772777       16.7405806832        7.1024297940    0   0   0
Ce            9.6651792339        3.3481120052        7.1024297940    0   0   0
Ce           -0.0000067685        6.6962341893        7.1024297940    0   0   0
Ce           -1.9330339619        3.3481120052        7.1024297940    0   0   0
Ce           -1.9330359181       16.7405806832        7.1024297940    0   0   0
Ce           -1.9330409032       10.0443464939        7.1024297940    0   0   0
Ce           -3.8660738007        6.6962341893        7.1024297940    0   0   0
Ce           -3.8660750380       13.3924587984        7.1024297940    0   0   0
Ce           -5.7991079354       10.0443464939        7.1024297940    0   0   0
Ce           -5.7991147039       16.7405806832        7.1024297940    0   0   0
Ce           -7.7321420701       13.3924587984        7.1024297940    0   0   0
Ce           11.5982067729        6.6962341893        7.1024297940    0   0   0
Ce           11.5982131958        0.0000000000        7.1024297940    0   0   0
Ce           11.5982169437       13.3924587984        7.1024297940    0   0   0
Ce           13.5312446555       16.7405806832        7.1024297940    0   0   0
Ce           13.5312466117        3.3481120052        7.1024297940    0   0   0
Ce           13.5312510784       10.0443464939        7.1024297940    0   0   0
Ce           15.4642805736        0.0000000000        7.1024297940    0   0   0
Ce           15.4642852131        6.6962341893        7.1024297940    0   0   0
Ce           17.3973250519        3.3481120052        7.1024297940    0   0   0
Ce           19.3303590138        0.0000000000        7.1024297940    0   0   0
O             0.0000040439       11.1603843271        7.8916000590    0   0   0
O             1.9330334545        1.1160373853        7.8916000590    0   0   0
O             1.9330379794       14.5084954364        7.8916000590    0   0   0
O             1.9330381787        7.8122720226        7.8916000590    0   0   0
O             3.8660643099       17.8566185164        7.8916000590    0   0   0
O             3.8660714240       11.1603843271        7.8916000590    0   0   0
O             3.8660781902        4.4641495391        7.8916000590    0   0   0
O             5.7991046660       14.5084954364        7.8916000590    0   0   0
O             5.7991055588        7.8122720226        7.8916000590    0   0   0
O             5.7991122380        1.1160373853        7.8916000590    0   0   0
O             7.7321381106       11.1603843271        7.8916000590    0   0   0
O             7.7321441303       17.8566185164        7.8916000590    0   0   0
O             7.7321455703        4.4641495391        7.8916000590    0   0   0
O             9.6651722453        7.8122720226        7.8916000590    0   0   0
O             9.6651796158        1.1160373853        7.8916000590    0   0   0
O             9.6651844886       14.5084954364        7.8916000590    0   0   0
O            -0.0000005933        4.4641495391        7.8916000590    0   0   0
O            -0.0000023766       17.8566185164        7.8916000590    0   0   0
O            -1.9330293984       14.5084954364        7.8916000590    0   0   0
O            -1.9330406048        7.8122720226        7.8916000590    0   0   0
O            -3.8660697567       17.8566185164        7.8916000590    0   0   0
O            -3.8660747396       11.1603843271        7.8916000590    0   0   0
O            -5.7991081842       14.5084954364        7.8916000590    0   0   0
O            -7.7321485402       17.8566185164        7.8916000590    0   0   0
O            11.5982115104       17.8566185164        7.8916000590    0   0   0
O            11.5982122569        4.4641495391        7.8916000590    0   0   0
O            11.5982179310       11.1603843271        7.8916000590    0   0   0
O            13.5312463046        1.1160373853        7.8916000590    0   0   0
O            13.5312518665       14.5084954364        7.8916000590    0   0   0
O            13.5312520657        7.8122720226        7.8916000590    0   0   0
O            15.4642853111       11.1603843271        7.8916000590    0   0   0
O            15.4642920796        4.4641495391        7.8916000590    0   0   0
O            17.3973194458        7.8122720226        7.8916000590    0   0   0
O            17.3973261250        1.1160373853        7.8916000590    0   0   0
O            19.3303594574        4.4641495391        7.8916000590    0   0   0
O            21.2633935028        1.1160373853        7.8916000590    0   0   0
O             1.8587263172       16.7794508531        9.4061656622
O             7.7638507329        6.6557148634        9.4101077896
O            -3.8620356232        6.6992495183        9.4715842460
O            -9.6529862930       16.7507335898        9.4557659873
O             3.8121401832       13.4567153740        9.4287210503
O             9.6663508362        3.3160515317        9.4331373521
O            -1.9349693937        3.3490276200        9.4572468435
O            -7.7162399491       13.4086560837        9.4589343770
O            -0.0139861623        6.6851342542        9.4556964955
O             5.8215082304       16.7755050567        9.4216045793
O            -5.7960280223       16.7406935819        9.4554576388
O            11.5786482669        6.6721144382        9.4112043097
O             1.9136010232       10.0241095004        9.4145764952
O             7.7294630192       -0.0110379046        9.4560017711
O            13.6120234037       10.0914278429        9.3951947469
O            19.3433016165        0.0125774567        9.4518976979
O             0.0082081835        0.0037714408        9.4539325784
O             5.8094046759        9.9729874591        9.3926532053
O            -5.7798839101       10.0461974677        9.4552138713
O            11.5897673222        0.0019061373        9.4503395262
O             3.8624323317       -0.0055533646        9.4529030961
O             9.6594659463       10.0673444635        9.4268466870
O            -1.9395329525       10.0451528294        9.4587254242
O            15.4561916365        0.0040781205        9.4605059113
O             3.8389689826        6.6553623177        9.4190048225
O             9.6847701508       16.7580716177        9.4584326188
O            -1.9293839080       16.7371289484        9.4678219476
O            15.4813421101        6.6953698363        9.4563586172
O             5.7947581305        3.2988738363        9.4302770340
O            -0.0481264653       13.4227620849        9.4139317262
O            11.6633965232       13.4366138457        9.4017406072
O            17.4020031763        3.3420826510        9.4632735949
O             1.9270636430        3.3405093918        9.4594897268
O             7.7787665391       13.4083755556        9.4314210424
O            -3.8648231709       13.3913958611        9.4589038824
O            13.5324822688        3.3293307828        9.4535428331
Ce            1.8865081205       14.5550841309       10.2064716014
Ce            7.7336578575        4.4074446656       10.2196966404
Ce           13.5596731127       14.5384880844       10.2575670723
Ce           19.3292729848        4.4641376161       10.2863691132
Ce           -0.0130137833       17.8758287783       10.2720731362
Ce            5.7796904516        7.7479794425       10.2136749858
Ce           11.6046899488       17.8734489907       10.2803297263
Ce           17.4165195624        7.8113723579       10.2863251614
Ce            3.8568341057       17.9001997877       10.2409628155
Ce            9.6821432623        7.7891512453       10.1906335076
Ce           -1.9358103189        7.8047265575       10.2849655326
Ce           -7.7305031130       17.8616259536       10.2791076380
Ce            3.8192321144       11.1424291195       10.1848953205
Ce            9.6627044757        1.1008619422       10.2702393171
Ce           15.5010723052       11.1686422898       10.2597527757
Ce           21.2651426649        1.1185518181       10.2822586757
Ce            1.9152377326        7.7843294103       10.2558512621
Ce            7.7386440325       17.8686479838       10.2759705505
Ce           -3.8704819713       17.8553357024       10.2802328300
Ce           13.5793242527        7.8171286104       10.2259279681
Ce            5.7929593284        1.1008460578       10.2764550790
Ce           -0.0243858197       11.1549975696       10.2407806132
Ce           11.6791856592       11.2109999136       10.2012885414
Ce           17.4110009624        1.1164297063       10.2880730049
Ce           -0.0085884288        4.4595767466       10.2868848891
Ce            5.7940711556       14.5726262035       10.2353537871
Ce           -5.7921991685       14.5146796731       10.2782276991
Ce           11.6102099071        4.4432146616       10.2584407185
Ce            1.9311813263        1.1119261325       10.2839874274
Ce            7.7134285219       11.1558211549       10.1930756065
Ce           -3.8659816383       11.1580629183       10.2835605165
Ce           13.5238714641        1.1109510410       10.2865312213
Ce            3.8498290323        4.4295888630       10.2605510133
Ce            9.6954556128       14.5377962991       10.2539359273
Ce           -1.9448371177       14.5098146859       10.2723033314
Ce           15.4661240825        4.4525022916       10.2927273209
O             3.8530509904        8.9069356042       11.0206419360
O             9.6775528152       18.9888977561       11.1141309137
O            -1.9401068535       18.9699247131       11.1094287578
O            15.4884695422        8.9310363504       11.0986208182
O             1.8876642950       12.2595067915       10.9894497728
O             7.7345378030        2.2285475287       11.0975573095
O            13.5355354927       12.2761063310       11.0846661662
O            19.3339732457        2.2361208507       11.1106581393
O             5.8177666642       19.0003993809       11.0904126882
O            -0.0118742893        8.9151378124       11.0921356622
O            -5.7998732199       18.9652303110       11.1064408253
O            11.7273760781        8.9504200393       10.9687633203
O             3.8251909045       15.7581238390       10.9664375120
O             9.6918204957        5.5518201322       11.1001249837
O            -1.9301442516        5.5766862514       11.1055077971
O            -7.7283350698       15.6314642423       11.1052697888
O             1.9047704112       18.9782122405       11.1017112476
O             7.8036903284        8.8512287707       11.1115878869
O            -3.8625524806        8.9297740510       11.1085610104
O            -9.6642075228       18.9791917106       11.1066069752
O             5.7791068009        5.5300561032       11.0017130733
O             0.0110279842       15.6024047321       11.1279503484
O            11.6067361519       15.6368556449       11.0950484849
O            17.3990814845        5.5789178668       11.1075400148
O             5.7619258492       12.2358852189       10.8425955223
O            -0.0006643442        2.2305385030       11.1037576449
O            -5.7893198011       12.2800375650       11.1134014276
O            11.5947426355        2.2226598138       11.1088133281
O             1.9267886713        5.5812912375       11.1121989929
O             7.7235528854       15.6484160091       11.0697042825
O            -3.8690344428       15.6265660029       11.1058819636
O            13.5149687189        5.5738752991       11.0896195625
O             3.8619503227        2.2163809146       11.1025725698
O             9.8475174012       12.3629576981       11.1422941258
O            -1.9201789761       12.2880014510       11.1151270377
O            15.4613641660        2.2290469828       11.1117374633
H             1.1501047050       13.1010478581       13.9288777110
N             2.1628456009       13.2402793185       13.8852270659
C             2.7968810191       14.4095645223       13.6056738528
N             4.1273316667       14.2669226486       13.4977074667
C             4.3436562571       12.9322237094       13.6983575581
C             5.5134869047       12.1471513825       13.6768808292
O             6.7321728956       12.5420100936       13.6395424556
N             5.2410507232       10.7778248574       13.7483339662
C             4.0187080176       10.2164480188       14.0304399979
N             3.9855334181        8.8928714346       14.2688522942
N             2.8901234220       10.9453105971       14.0842547355
C             3.0916052828       12.2347001118       13.9154630998
H             2.2721194138       15.3569704709       13.5127676717
H             6.0440328068       10.1577120885       13.6137486243
H             3.0930888682        8.4351186022       14.4214857259
H             4.7869709005        8.2908254954       14.0961257092
H             8.6518214414        5.9856018152       13.5814385771
N             8.7427439532        6.9925685306       13.6022288633
C             7.5627869921        7.6966752161       13.5072718264
O             6.4366134338        7.2815810678       13.3804380217
N             7.7543559557        9.1695580256       13.8119074451
C             8.9748002772        9.8085390759       13.3941732138
N             8.9194737380       11.0789098979       13.3162370145
C            10.1231820277        8.9350291760       13.3213774555
C             9.9367593746        7.5744936597       13.4981198730
H            10.8197381391        6.8776278207       13.5762036752
H            11.1254961316        9.3488792224       13.2308390294
H             7.9741322523       11.6156042129       13.5598089965
H             9.6828193397       11.6416563366       12.8403727222
N             7.6608435445        9.2864834477       15.1675140941
C             7.6393010334        8.8029960008       16.2507149666
N             5.7714079705        5.3974857681       16.3455836700
C             6.3807298740        6.2336648784       16.9370473371
N            10.1746140037        6.0353446713       17.1385999662
C             9.2027186988        6.5853348843       17.5042364196
Fe            7.4838352851        7.7117884582       17.9410779186
C             5.7825761011        8.8725539926       17.9577515089
N             4.8088003964        9.6383994014       17.8137267680
C             8.6093657788        9.3675146839       18.5053217778
N             9.2769194663       10.2772000512       18.7573737183
C             7.2943506670        7.0491428597       19.8415496385
N             7.1670247075        6.6980855390       20.9290549342
K_POINTS gamma
CELL_PARAMETERS angstrom
     23.1964263916       0.0000000000       0.0000000000
    -11.5982158708      20.0886929877       0.0000000000
      0.0000000000       0.0000000000      30.0000000000
