&CONTROL
  calculation = 'scf'
  etot_conv_thr =   1.5000000000d-03
  forc_conv_thr =   1.0000000000d-04
  outdir = './out/'
  prefix = 'aiida'
  pseudo_dir = './pseudo/'
  tprnfor = .true.
  tstress = .true.
  verbosity='high'
/
&SYSTEM
  degauss =   2.0000000000d-02
  ecutrho =   3.2000000000d+02
  ecutwfc =   4.0000000000d+01
  ibrav = 0
  nat = 242
  nosym = .false.
  ntyp = 6
  occupations = 'smearing'
  lda_plus_U = .true.
  Hubbard_U(2) = 5.0
  Hubbard_U(6) = 5.0
  smearing = 'mp'
  nspin = 2
  starting_magnetization(1) =   1.0000000000d-01
  starting_magnetization(2) =   4.1666666667d-01
  starting_magnetization(6) =   4.1666666667d-01
/
&ELECTRONS
  scf_must_converge = .false.
  conv_thr =   4.2200000000d-08
  electron_maxstep = 300
  mixing_beta =   1.0000000000d-01
/
&IONS
/
ATOMIC_SPECIES
O      15.9994 O.pbe-n-kjpaw_psl.0.1.UPF
Ce     140.116 Ce.paw.z_12.atompaw.wentzcovitch.v1.2.upf
H      1.00794 H.pbe-rrkjus_psl.1.0.0.UPF
N      14.0067 N.pbe-n-radius_5.UPF
C      12.0107 C.pbe-n-kjpaw_psl.1.0.0.UPF
Fe     55.845 Fe.pbe-spn-kjpaw_psl.0.2.1.UPF
ATOMIC_POSITIONS (angstrom)
O             1.9330270702        5.5801969547        6.3132601995    0   0   0
O             1.9330311637       18.9726563517        6.3132601995    0   0   0
O             1.9330382755       12.2764209651        6.3132601995    0   0   0
O             3.8660652996       15.6245440452        6.3132601995    0   0   0
O             3.8660669066        2.2320747706        6.3132601995    0   0   0
O             3.8660720657        8.9283092572        6.3132601995    0   0   0
O             5.7990971567       18.9726563517        6.3132601995    0   0   0
O             5.7991056556       12.2764209651        6.3132601995    0   0   0
O             5.7991062016        5.5801969547        6.3132601995    0   0   0
O             7.7321312926       15.6245440452        6.3132601995    0   0   0
O             7.7321394435        8.9283092572        6.3132601995    0   0   0
O             7.7321460381        2.2320747706        6.3132601995    0   0   0
O             9.6651716509       12.2764209651        6.3132601995    0   0   0
O             9.6651735794        5.5801969547        6.3132601995    0   0   0
O             9.6651769793       18.9726563517        6.3132601995    0   0   0
O            -0.0000002972        2.2320747706        6.3132601995    0   0   0
O            -0.0000020806       15.6245440452        6.3132601995    0   0   0
O            -0.0000070657        8.9283092572        6.3132601995    0   0   0
O            -1.9330362165       18.9726563517        6.3132601995    0   0   0
O            -1.9330401360        5.5801969547        6.3132601995    0   0   0
O            -1.9330408537       12.2764209651        6.3132601995    0   0   0
O            -3.8660742695        8.9283092572        6.3132601995    0   0   0
O            -3.8660812097       15.6245440452        6.3132601995    0   0   0
O            -5.7991080598       12.2764209651        6.3132601995    0   0   0
O            -5.7991153456       18.9726563517        6.3132601995    0   0   0
O            -7.7321484158       15.6245440452        6.3132601995    0   0   0
O            -9.6651825517       18.9726563517        6.3132601995    0   0   0
O            11.5982054412        8.9283092572        6.3132601995    0   0   0
O            11.5982111152       15.6245440452        6.3132601995    0   0   0
O            11.5982134159        2.2320747706        6.3132601995    0   0   0
O            13.5312395747        5.5801969547        6.3132601995    0   0   0
O            13.5312514713       12.2764209651        6.3132601995    0   0   0
O            15.4642794135        2.2320747706        6.3132601995    0   0   0
O            15.4642852615        8.9283092572        6.3132601995    0   0   0
O            17.3973193951        5.5801969547        6.3132601995    0   0   0
O            19.3303592339        2.2320747706        6.3132601995    0   0   0
Ce            0.0000000000        0.0000000000        7.1024297940    0   0   0
Ce            0.0000037479       13.3924587984        7.1024297940    0   0   0
Ce            1.9330314597       16.7405806832        7.1024297940    0   0   0
Ce            1.9330330703        3.3481120052        7.1024297940    0   0   0
Ce            1.9330378826       10.0443464939        7.1024297940    0   0   0
Ce            3.8660670322        0.0000000000        7.1024297940    0   0   0
Ce            3.8660711257       13.3924587984        7.1024297940    0   0   0
Ce            3.8660720173        6.6962341893        7.1024297940    0   0   0
Ce            5.7990988375       16.7405806832        7.1024297940    0   0   0
Ce            5.7991052604       10.0443464939        7.1024297940    0   0   0
Ce            5.7991118561        3.3481120052        7.1024297940    0   0   0
Ce            7.7321385035       13.3924587984        7.1024297940    0   0   0
Ce            7.7321393951        6.6962341893        7.1024297940    0   0   0
Ce            7.7321458180        0.0000000000        7.1024297940    0   0   0
Ce            9.6651726382       10.0443464939        7.1024297940    0   0   0
Ce            9.6651772777       16.7405806832        7.1024297940    0   0   0
Ce            9.6651792339        3.3481120052        7.1024297940    0   0   0
Ce           -0.0000067685        6.6962341893        7.1024297940    0   0   0
Ce           -1.9330339619        3.3481120052        7.1024297940    0   0   0
Ce           -1.9330359181       16.7405806832        7.1024297940    0   0   0
Ce           -1.9330409032       10.0443464939        7.1024297940    0   0   0
Ce           -3.8660738007        6.6962341893        7.1024297940    0   0   0
Ce           -3.8660750380       13.3924587984        7.1024297940    0   0   0
Ce           -5.7991079354       10.0443464939        7.1024297940    0   0   0
Ce           -5.7991147039       16.7405806832        7.1024297940    0   0   0
Ce           -7.7321420701       13.3924587984        7.1024297940    0   0   0
Ce           11.5982067729        6.6962341893        7.1024297940    0   0   0
Ce           11.5982131958        0.0000000000        7.1024297940    0   0   0
Ce           11.5982169437       13.3924587984        7.1024297940    0   0   0
Ce           13.5312446555       16.7405806832        7.1024297940    0   0   0
Ce           13.5312466117        3.3481120052        7.1024297940    0   0   0
Ce           13.5312510784       10.0443464939        7.1024297940    0   0   0
Ce           15.4642805736        0.0000000000        7.1024297940    0   0   0
Ce           15.4642852131        6.6962341893        7.1024297940    0   0   0
Ce           17.3973250519        3.3481120052        7.1024297940    0   0   0
Ce           19.3303590138        0.0000000000        7.1024297940    0   0   0
O             0.0000040439       11.1603843271        7.8916000590    0   0   0
O             1.9330334545        1.1160373853        7.8916000590    0   0   0
O             1.9330379794       14.5084954364        7.8916000590    0   0   0
O             1.9330381787        7.8122720226        7.8916000590    0   0   0
O             3.8660643099       17.8566185164        7.8916000590    0   0   0
O             3.8660714240       11.1603843271        7.8916000590    0   0   0
O             3.8660781902        4.4641495391        7.8916000590    0   0   0
O             5.7991046660       14.5084954364        7.8916000590    0   0   0
O             5.7991055588        7.8122720226        7.8916000590    0   0   0
O             5.7991122380        1.1160373853        7.8916000590    0   0   0
O             7.7321381106       11.1603843271        7.8916000590    0   0   0
O             7.7321441303       17.8566185164        7.8916000590    0   0   0
O             7.7321455703        4.4641495391        7.8916000590    0   0   0
O             9.6651722453        7.8122720226        7.8916000590    0   0   0
O             9.6651796158        1.1160373853        7.8916000590    0   0   0
O             9.6651844886       14.5084954364        7.8916000590    0   0   0
O            -0.0000005933        4.4641495391        7.8916000590    0   0   0
O            -0.0000023766       17.8566185164        7.8916000590    0   0   0
O            -1.9330293984       14.5084954364        7.8916000590    0   0   0
O            -1.9330406048        7.8122720226        7.8916000590    0   0   0
O            -3.8660697567       17.8566185164        7.8916000590    0   0   0
O            -3.8660747396       11.1603843271        7.8916000590    0   0   0
O            -5.7991081842       14.5084954364        7.8916000590    0   0   0
O            -7.7321485402       17.8566185164        7.8916000590    0   0   0
O            11.5982115104       17.8566185164        7.8916000590    0   0   0
O            11.5982122569        4.4641495391        7.8916000590    0   0   0
O            11.5982179310       11.1603843271        7.8916000590    0   0   0
O            13.5312463046        1.1160373853        7.8916000590    0   0   0
O            13.5312518665       14.5084954364        7.8916000590    0   0   0
O            13.5312520657        7.8122720226        7.8916000590    0   0   0
O            15.4642853111       11.1603843271        7.8916000590    0   0   0
O            15.4642920796        4.4641495391        7.8916000590    0   0   0
O            17.3973194458        7.8122720226        7.8916000590    0   0   0
O            17.3973261250        1.1160373853        7.8916000590    0   0   0
O            19.3303594574        4.4641495391        7.8916000590    0   0   0
O            21.2633935028        1.1160373853        7.8916000590    0   0   0
O             1.9391851517       16.7341300698        9.4412664402
O             7.7418589328        6.7031672274        9.4466291336
O            -3.8674031814        6.6971198047        9.4374412861
O            -9.6731942132       16.7294757820        9.4416111284
O             3.8794684141       13.3869233214        9.4418023292
O             9.6677454551        3.3564625707        9.4438855509
O            -1.9339283246        3.3496348426        9.4382200027
O            -7.7380177679       13.3925798839        9.4392710524
O            -0.0004232209        6.6963340849        9.4376404125
O             5.8118712927       16.7265893686        9.4426037178
O            -5.8032650495       16.7368692636        9.4423333922
O            11.5950556993        6.6951827998        9.4404424344
O             1.9387110781       10.0466346340        9.4434765927
O             7.7320490305       -0.0017358700        9.4439203868
O            13.5610012862       10.0492327892        9.4316289285
O            19.3335031534       -0.0021358560        9.4418695717
O            -0.0007236608       -0.0023467067        9.4405515899
O             5.8107186725       10.0240079067        9.4519088795
O            -5.7957462366       10.0436431647        9.4376172903
O            11.6013646936       -0.0015059809        9.4401490044
O             3.8629025639       -0.0039139786        9.4410950584
O             9.6683865170       10.0749728130        9.4543414714
O            -1.9325753833       10.0440473560        9.4385706877
O            15.4678444281       -0.0019012898        9.4410789889
O             3.8629430838        6.6987956889        9.4382866947
O             9.6653496606       16.7398516458        9.4399865206
O            -1.9302725541       16.7385304546        9.4380673516
O            15.4702113986        6.6924916770        9.4391047549
O             5.8008917159        3.3326356611        9.4327436993
O             0.0050929783       13.3938614300        9.4410161821
O            11.5415022280       13.3667666732        9.4777899983
O            17.3947344011        3.3504022336        9.4408722785
O             1.9328382193        3.3453391035        9.4363729843
O             7.8007026578       13.3603763844        9.4786128985
O            -3.8650004439       13.3924497110        9.4366984308
O            13.5332237258        3.3510173474        9.4384259954
Ce            1.9339254468       14.5072391435       10.2488131641
Ce            7.7252395387        4.4438633293       10.2381286634
Ce           13.5386768252       14.5136417800       10.2479295427
Ce           19.3307062440        4.4662884365       10.2491337722
Ce            0.0020490345       17.8550285776       10.2461216175
Ce            5.7832533054        7.7839099555       10.2702086085
Ce           11.6006082477       17.8727070709       10.2411056502
Ce           17.4094487315        7.8071851329       10.2470030543
Ce            3.8671442399       17.8569574612       10.2514863544
Ce            9.6792931230        7.7931107299       10.2211821786
Ce           -1.9303971945        7.8119956261       10.2503385255
Ce           -7.7322250030       17.8583476529       10.2493330072
Ce            3.8535704953       11.1455576437       10.2544370850
Ce            9.6673270002        1.1117421344       10.2534983728
Ce           15.4914659242       11.1568517674       10.2464262527
Ce           21.2651230480        1.1242088488       10.2504993496
Ce            1.9287494259        7.8037324198       10.2503338738
Ce            7.7355806678       17.8733443192       10.2429595346
Ce           -3.8646807390       17.8579432749       10.2481063380
Ce           13.5626332264        7.8042545979       10.2412437777
Ce            5.7962070662        1.1130896278       10.2493658993
Ce            0.0005442476       11.1580176699       10.2527882553
Ce           11.6677342848       11.1387047087       10.2396643940
Ce           17.3971089462        1.1181535323       10.2485821563
Ce           -0.0001710251        4.4661878484       10.2493150347
Ce            5.8012986512       14.5087722815       10.2487469947
Ce           -5.7925906858       14.5104354780       10.2473160108
Ce           11.6046112251        4.4562975467       10.2501891561
Ce            1.9350974316        1.1174168146       10.2491766580
Ce            7.6983109264       11.1225955855       10.2297939909
Ce           -3.8586175308       11.1580812716       10.2490439543
Ce           13.5345488156        1.1163271470       10.2492689285
Ce            3.8588695998        4.4544854876       10.2465506425
Ce            9.6705017129       14.5567483447       10.2705931130
Ce           -1.9310475230       14.5077810890       10.2480208881
Ce           15.4677550059        4.4592112419       10.2488255611
O             3.8680764547        8.9337278063       11.0206172854
O             9.6638479614       18.9653410844       11.0398303568
O            -1.9282977184       18.9736078397       11.0356784532
O            15.4746811811        8.9286042058       11.0393979640
O             1.9439711814       12.2760831381       11.0359951184
O             7.7387890808        2.2392314303       11.0332645670
O            13.5247792415       12.2675290848       11.0355138312
O            19.3302390994        2.2293940872       11.0356977292
O             5.8050585663       18.9659081081       11.0400266630
O            -0.0010107915        8.9280640828       11.0366881973
O            -5.8006636082       18.9674644218       11.0347252955
O            11.6599180678        8.9454631554       10.9926591658
O             3.8856735063       15.6150800604       11.0399963065
O             9.6769019241        5.5908100951       11.0660372863
O            -1.9349189821        5.5810346475       11.0350518492
O            -7.7464168637       15.6149347727       11.0394788683
O             1.9378424240       18.9727088857       11.0395686588
O             7.7724959203        8.9179783471       11.0301769669
O            -3.8687074282        8.9285608352       11.0409952736
O            -9.6711878343       18.9656256723       11.0374526843
O             5.7995316483        5.5550913735       10.9772093096
O             0.0087424921       15.6226170710       11.0378702637
O            11.5808803001       15.6131056325       11.0423168236
O            17.3925157724        5.5824836170       11.0431062369
O             5.8415605936       12.2600839691       11.0457880328
O            -0.0015418843        2.2278861083       11.0360445822
O            -5.7994205402       12.2757067703       11.0389513121
O            11.6001593888        2.2379635596       11.0394425072
O             1.9275491974        5.5822426842       11.0307206748
O             7.7535123583       15.6040137327       11.0436070339
O            -3.8667614825       15.6216551014       11.0373479275
O            13.5238644463        5.5838473489       11.0408557670
O             3.8649294878        2.2251226844       11.0336242973
O             9.7073479119       12.1902487687       11.3348164679
O            -1.9324189532       12.2753209274       11.0373815217
O            15.4642097207        2.2330449023       11.0429855781
H             8.6146296888        5.9892210499       13.7271408228
N             8.6793362294        7.0339608844       13.6780627146
C             7.5072465775        7.7247118919       13.5814694326
O             6.3929876827        7.2685440973       13.3929606626
N             7.6446683142        9.1783428473       13.8687066616
C             8.8855915286        9.8409798251       13.5111639523
N             8.8785360772       11.1319409087       13.3728891305
C            10.0401970938        8.9975032068       13.4541135247
C             9.9150471643        7.6453662723       13.6157906045
H            10.7848120812        6.9942336980       13.6769992344
H            11.0230449590        9.4598044912       13.3261041987
H             7.9871934248       11.5693301272       13.6276637482
H             9.4832415489       11.7699953650       12.3667399562
N             7.4548567156        9.2969683469       15.2025922888
C             7.3910670748        8.9153513994       16.3262583145
N             6.0566356861        5.5555265834       16.1275953223
C             6.5101915532        6.3704708619       16.8615033008
N            10.0706951345        6.3876581005       16.7662893225
C             9.1585378523        6.8534915360       17.3402900740
Fe            7.4301199130        7.7893444693       18.0341554783
C             5.7278311480        8.9014974466       18.1823881138
N             4.8439745415        9.6618655954       17.9891166909
C             8.6574908202        9.2679224971       18.7929100507
N             9.3866156189       10.1884638317       18.8912594100
C             6.9540506507        6.6097777478       19.5799985414
N             6.6694007648        5.9320051578       20.4858285968
K_POINTS gamma
CELL_PARAMETERS angstrom
     23.1964263916       0.0000000000       0.0000000000
    -11.5982158708      20.0886929877       0.0000000000
      0.0000000000       0.0000000000      30.0000000000
