&CONTROL
  calculation = 'relax'
  etot_conv_thr =   1.5000000000d-03
  forc_conv_thr =   1.0000000000d-04
  outdir = './out/'
  prefix = 'aiida'
  pseudo_dir = './pseudo/'
  tprnfor = .true.
  tstress = .true.
/
&SYSTEM
  degauss =   2.0000000000d-02
  ecutrho =   2.4000000000d+02
  ecutwfc =   3.0000000000d+01
  ibrav = 0
  nat = 229
  nosym = .false.
  ntyp = 6
  occupations = 'smearing'
  lda_plus_U = .true.
  Hubbard_U(2) = 5.0
  Hubbard_U(6) = 5.0
  smearing = 'mp'
  nspin = 2
  starting_magnetization(1) =   1.0000000000d-01
  starting_magnetization(2) =   4.1666666667d-01
  starting_magnetization(6) =   4.1666666667d-01
/
&ELECTRONS
  scf_must_converge = .false.
  conv_thr =   4.2200000000d-06
  electron_maxstep = 80
  mixing_beta =   1.0000000000d-01
/
&IONS
/
ATOMIC_SPECIES
O      15.9994 O.pbe-n-kjpaw_psl.0.1.UPF
Ce     140.116 Ce.paw.z_12.atompaw.wentzcovitch.v1.2.upf
H      1.00794 H.pbe-rrkjus_psl.1.0.0.UPF
N      14.0067 N.pbe-n-radius_5.UPF
C      12.0107 C.pbe-n-kjpaw_psl.1.0.0.UPF
Fe     55.845 Fe.pbe-spn-kjpaw_psl.0.2.1.UPF
ATOMIC_POSITIONS (angstrom)
O             1.9330270702        5.5801969547        6.3132601995    0   0   0
O             1.9330311637       18.9726563517        6.3132601995    0   0   0
O             1.9330382755       12.2764209651        6.3132601995    0   0   0
O             3.8660652996       15.6245440452        6.3132601995    0   0   0
O             3.8660669066        2.2320747706        6.3132601995    0   0   0
O             3.8660720657        8.9283092572        6.3132601995    0   0   0
O             5.7990971567       18.9726563517        6.3132601995    0   0   0
O             5.7991056556       12.2764209651        6.3132601995    0   0   0
O             5.7991062016        5.5801969547        6.3132601995    0   0   0
O             7.7321312926       15.6245440452        6.3132601995    0   0   0
O             7.7321394435        8.9283092572        6.3132601995    0   0   0
O             7.7321460381        2.2320747706        6.3132601995    0   0   0
O             9.6651716509       12.2764209651        6.3132601995    0   0   0
O             9.6651735794        5.5801969547        6.3132601995    0   0   0
O             9.6651769793       18.9726563517        6.3132601995    0   0   0
O            -0.0000002972        2.2320747706        6.3132601995    0   0   0
O            -0.0000020806       15.6245440452        6.3132601995    0   0   0
O            -0.0000070657        8.9283092572        6.3132601995    0   0   0
O            -1.9330362165       18.9726563517        6.3132601995    0   0   0
O            -1.9330401360        5.5801969547        6.3132601995    0   0   0
O            -1.9330408537       12.2764209651        6.3132601995    0   0   0
O            -3.8660742695        8.9283092572        6.3132601995    0   0   0
O            -3.8660812097       15.6245440452        6.3132601995    0   0   0
O            -5.7991080598       12.2764209651        6.3132601995    0   0   0
O            -5.7991153456       18.9726563517        6.3132601995    0   0   0
O            -7.7321484158       15.6245440452        6.3132601995    0   0   0
O            -9.6651825517       18.9726563517        6.3132601995    0   0   0
O            11.5982054412        8.9283092572        6.3132601995    0   0   0
O            11.5982111152       15.6245440452        6.3132601995    0   0   0
O            11.5982134159        2.2320747706        6.3132601995    0   0   0
O            13.5312395747        5.5801969547        6.3132601995    0   0   0
O            13.5312514713       12.2764209651        6.3132601995    0   0   0
O            15.4642794135        2.2320747706        6.3132601995    0   0   0
O            15.4642852615        8.9283092572        6.3132601995    0   0   0
O            17.3973193951        5.5801969547        6.3132601995    0   0   0
O            19.3303592339        2.2320747706        6.3132601995    0   0   0
Ce            0.0000000000        0.0000000000        7.1024297940    0   0   0
Ce            0.0000037479       13.3924587984        7.1024297940    0   0   0
Ce            1.9330314597       16.7405806832        7.1024297940    0   0   0
Ce            1.9330330703        3.3481120052        7.1024297940    0   0   0
Ce            1.9330378826       10.0443464939        7.1024297940    0   0   0
Ce            3.8660670322        0.0000000000        7.1024297940    0   0   0
Ce            3.8660711257       13.3924587984        7.1024297940    0   0   0
Ce            3.8660720173        6.6962341893        7.1024297940    0   0   0
Ce            5.7990988375       16.7405806832        7.1024297940    0   0   0
Ce            5.7991052604       10.0443464939        7.1024297940    0   0   0
Ce            5.7991118561        3.3481120052        7.1024297940    0   0   0
Ce            7.7321385035       13.3924587984        7.1024297940    0   0   0
Ce            7.7321393951        6.6962341893        7.1024297940    0   0   0
Ce            7.7321458180        0.0000000000        7.1024297940    0   0   0
Ce            9.6651726382       10.0443464939        7.1024297940    0   0   0
Ce            9.6651772777       16.7405806832        7.1024297940    0   0   0
Ce            9.6651792339        3.3481120052        7.1024297940    0   0   0
Ce           -0.0000067685        6.6962341893        7.1024297940    0   0   0
Ce           -1.9330339619        3.3481120052        7.1024297940    0   0   0
Ce           -1.9330359181       16.7405806832        7.1024297940    0   0   0
Ce           -1.9330409032       10.0443464939        7.1024297940    0   0   0
Ce           -3.8660738007        6.6962341893        7.1024297940    0   0   0
Ce           -3.8660750380       13.3924587984        7.1024297940    0   0   0
Ce           -5.7991079354       10.0443464939        7.1024297940    0   0   0
Ce           -5.7991147039       16.7405806832        7.1024297940    0   0   0
Ce           -7.7321420701       13.3924587984        7.1024297940    0   0   0
Ce           11.5982067729        6.6962341893        7.1024297940    0   0   0
Ce           11.5982131958        0.0000000000        7.1024297940    0   0   0
Ce           11.5982169437       13.3924587984        7.1024297940    0   0   0
Ce           13.5312446555       16.7405806832        7.1024297940    0   0   0
Ce           13.5312466117        3.3481120052        7.1024297940    0   0   0
Ce           13.5312510784       10.0443464939        7.1024297940    0   0   0
Ce           15.4642805736        0.0000000000        7.1024297940    0   0   0
Ce           15.4642852131        6.6962341893        7.1024297940    0   0   0
Ce           17.3973250519        3.3481120052        7.1024297940    0   0   0
Ce           19.3303590138        0.0000000000        7.1024297940    0   0   0
O             0.0000040439       11.1603843271        7.8916000590    0   0   0
O             1.9330334545        1.1160373853        7.8916000590    0   0   0
O             1.9330379794       14.5084954364        7.8916000590    0   0   0
O             1.9330381787        7.8122720226        7.8916000590    0   0   0
O             3.8660643099       17.8566185164        7.8916000590    0   0   0
O             3.8660714240       11.1603843271        7.8916000590    0   0   0
O             3.8660781902        4.4641495391        7.8916000590    0   0   0
O             5.7991046660       14.5084954364        7.8916000590    0   0   0
O             5.7991055588        7.8122720226        7.8916000590    0   0   0
O             5.7991122380        1.1160373853        7.8916000590    0   0   0
O             7.7321381106       11.1603843271        7.8916000590    0   0   0
O             7.7321441303       17.8566185164        7.8916000590    0   0   0
O             7.7321455703        4.4641495391        7.8916000590    0   0   0
O             9.6651722453        7.8122720226        7.8916000590    0   0   0
O             9.6651796158        1.1160373853        7.8916000590    0   0   0
O             9.6651844886       14.5084954364        7.8916000590    0   0   0
O            -0.0000005933        4.4641495391        7.8916000590    0   0   0
O            -0.0000023766       17.8566185164        7.8916000590    0   0   0
O            -1.9330293984       14.5084954364        7.8916000590    0   0   0
O            -1.9330406048        7.8122720226        7.8916000590    0   0   0
O            -3.8660697567       17.8566185164        7.8916000590    0   0   0
O            -3.8660747396       11.1603843271        7.8916000590    0   0   0
O            -5.7991081842       14.5084954364        7.8916000590    0   0   0
O            -7.7321485402       17.8566185164        7.8916000590    0   0   0
O            11.5982115104       17.8566185164        7.8916000590    0   0   0
O            11.5982122569        4.4641495391        7.8916000590    0   0   0
O            11.5982179310       11.1603843271        7.8916000590    0   0   0
O            13.5312463046        1.1160373853        7.8916000590    0   0   0
O            13.5312518665       14.5084954364        7.8916000590    0   0   0
O            13.5312520657        7.8122720226        7.8916000590    0   0   0
O            15.4642853111       11.1603843271        7.8916000590    0   0   0
O            15.4642920796        4.4641495391        7.8916000590    0   0   0
O            17.3973194458        7.8122720226        7.8916000590    0   0   0
O            17.3973261250        1.1160373853        7.8916000590    0   0   0
O            19.3303594574        4.4641495391        7.8916000590    0   0   0
O            21.2633935028        1.1160373853        7.8916000590    0   0   0
O             1.9258756055       16.7432251163        9.4600023824
O             7.7440463091        6.7956845395        9.5203057709
O            -3.8670409706        6.6986659054        9.4586205689
O            -9.6601335282       16.7412756884        9.4570136578
O             3.8654620510       13.3912288298        9.4797898821
O             9.6622891330        3.3448207475        9.4809137707
O            -1.9347874326        3.3505447260        9.4600933729
O            -7.7304458418       13.3988885071        9.4637266046
O            -0.0192571089        6.7067551549        9.4700378640
O             5.7921052662       16.7433073408        9.4696890162
O            -5.7951428995       16.7380671090        9.4612673003
O            11.6586617993        6.6700090563        9.4189551217
O             1.9250600626       10.0513953853        9.4759313226
O             7.7299667335       -0.0070265923        9.4563515935
O            13.5391492436       10.0497893245        9.4740126634
O            19.3311497450       -0.0007643248        9.4620678890
O             0.0028719401        0.0015052404        9.4515947102
O             5.8635029352       10.0066202568        9.5042115923
O            -5.7906593506       10.0506252523        9.4610581437
O            11.6008712809       -0.0099236618        9.4606091955
O             3.8665130890       -0.0084424662        9.4527250007
O             9.6117761015       10.0184232165        9.4975608255
O            -1.9420696990       10.0520632764        9.4552991642
O            15.4633569909       -0.0008666702        9.4590573650
O             3.7919464975        6.6785210013        9.4209717921
O             9.6822953676       16.7610613594        9.4591852756
O            -1.9306199686       16.7391887283        9.4638946830
O            15.4840031212        6.7052423273        9.4668918144
O             5.8037770338        3.3338727201        9.4873383418
O            -0.0056355941       13.3954577014        9.4625324730
O            11.6042590993       13.3964080190        9.4745044858
O            17.3972304299        3.3499440184        9.4633093154
O             1.9270480711        3.3268726549        9.4675941220
O             7.7260838449       13.4668905156        9.4095243941
O            -3.8652124705       13.3935037548        9.4653811812
O            13.5383024689        3.3282013962        9.4722667947
Ce            1.9292494769       14.5167809810       10.2984600502
Ce            7.7346972896        4.4386833008       10.2899448593
Ce           13.5353370852       14.5189848891       10.2941558782
Ce           19.3323716333        4.4626901216       10.3044527514
Ce           -0.0001128613       17.8551821799       10.2924939280
Ce            5.6492987546        7.7376446193       10.2261934463
Ce           11.6127908792       17.8704119491       10.2940829198
Ce           17.4101807059        7.8164760171       10.3055461696
Ce            3.8551376445       17.8653108567       10.2992845393
Ce            9.8160149389        7.7342510522       10.2337720976
Ce           -1.9499520058        7.8157819210       10.3001574206
Ce           -7.7309483568       17.8555637672       10.2871597567
Ce            3.8467737229       11.1702565387       10.2810985338
Ce            9.6632767962        1.1055959631       10.2955939044
Ce           15.4684548881       11.1682176019       10.2975115436
Ce           21.2635378801        1.1154897690       10.2964787354
Ce            1.8829943307        7.7907011807       10.2880587739
Ce            7.7391683477       17.8764777539       10.3034159196
Ce           -3.8675914251       17.8541904223       10.2962746491
Ce           13.5774346759        7.7930869290       10.2927682851
Ce            5.7986281236        1.1051533369       10.2946344845
Ce           -0.0077360087       11.1650327801       10.2991236866
Ce           11.6131316443       11.1722697302       10.2753750484
Ce           17.4026414377        1.1134460916       10.3022960221
Ce           -0.0130956403        4.4530819351       10.3048892948
Ce            5.7973495256       14.5603832266       10.2830452651
Ce           -5.7964750927       14.5163401031       10.2968225036
Ce           11.6420267347        4.4354565949       10.3051594652
Ce            1.9297260908        1.0991148715       10.2932371406
Ce            7.7363453408       11.3440513188       10.2328249304
Ce           -3.8662390786       11.1629231144       10.2936815673
Ce           13.5359646406        1.1021708761       10.3026185506
Ce            3.8165633876        4.4309908388       10.3064872447
Ce            9.6660693535       14.5652267315       10.2844347320
Ce           -1.9402248880       14.5159006824       10.3001168846
Ce           15.4773437992        4.4573134886       10.3097879186
O             3.8495224632        8.8730251792       11.0366071084
O             9.6655984017       18.9832808558       11.1179713919
O            -1.9397337893       18.9731719120       11.1138644036
O            15.4821395444        8.9346546636       11.1315213877
O             1.9511457940       12.2652236827       11.1146508653
O             7.7398275020        2.2462001357       11.0992499686
O            13.5089550668       12.2691518681       11.1079600525
O            19.3324003308        2.2322615101       11.1177990432
O             5.8034719359       18.9794073236       11.1166267240
O            -0.0211448381        8.9331949573       11.1272569986
O            -5.7952242493       18.9711604003       11.1148269173
O            11.6138382950        8.8677030688       11.0440415680
O             3.8618744113       15.6406795009       11.1246465286
O             9.7241285898        5.5982544774       11.0217565559
O            -1.9483355416        5.5754331194       11.1141808692
O            -7.7326533028       15.6214768726       11.1104524625
O             1.9337281442       18.9728647468       11.1145899319
O             7.7834366069        9.0116186806       11.4297703644
O            -3.8656997397        8.9260600466       11.1186762775
O            -9.6679036183       18.9736896220       11.1147987386
O             5.7427135425        5.6145576096       10.9659188631
O            -0.0025068135       15.6211660527       11.1114347012
O            11.6087699971       15.6450378961       11.1264599148
O            17.4045295683        5.5779696936       11.1172797818
O             5.8530422514       12.3253121436       11.0420867233
O            -0.0136530476        2.2230866306       11.1113007861
O            -5.8067683781       12.2770334317       11.1132692882
O            11.6096143397        2.2097925084       11.1255269021
O             1.8881861072        5.5564738424       11.1196722461
O             7.7394113965       15.6677948758       11.1193430702
O            -3.8648166225       15.6225753753       11.1123988600
O            13.5713209024        5.5686150445       11.1141303353
O             3.8520248547        2.2016238465       11.1192967036
O             9.6019822611       12.3267076244       11.0460041628
O            -1.9328841723       12.2779900509       11.1141832665
O            15.4798786475        2.2238024027       11.1113828393
N             7.7799959359        8.7756891569       12.6941653522
C             7.7937853651        8.5009462685       13.8356399100
N             5.7401911437        5.3552257549       14.3276179436
C             6.3085408361        6.1788341813       14.9247661874
N            10.2047514804        6.0038462734       15.2105718737
C             9.2774506838        6.6146216246       15.5338640096
Fe            7.4932953314        7.7415056275       15.8256894825
C             5.7588189663        8.9257560720       15.8701597388
N             4.7959284013        9.6332698774       15.8515475064
C             8.6603943575        9.3532975327       16.4711894487
N             9.2897464540       10.2850876471       16.8011164190
C             7.2347578856        7.0442467523       17.6881429390
N             7.0857489646        6.7019244614       18.7927330997
K_POINTS gamma
CELL_PARAMETERS angstrom
     23.1964263916       0.0000000000       0.0000000000
    -11.5982158708      20.0886929877       0.0000000000
      0.0000000000       0.0000000000      30.0000000000
